     Program PWSCF v.6.1 (svn rev. 13369) starts on 21Sep2020 at 10: 4:51

     Current dimensions of program PWSCF are:
     Max number of different atomic species (ntypx) = 10
     Max number of k-points (npk) =  40000
     Max angular momentum in pseudopotentials (lmaxx) =  3
               file Pb.UPF: wavefunction(s)  6S 6P 5D renormalized
               file Te.UPF: wavefunction(s)  5S 5P 4D renormalized

     Title:
      PbTe_PZ

     bravais-lattice index     =            0
     lattice parameter (alat)  =       7.7890  a.u.
     unit-cell volume          =    1240.8581 (a.u.)^3
     number of atoms/cell      =            2
     number of atomic types    =            2
     number of electrons       =        30.00
     number of Kohn-Sham states=           20
     kinetic-energy cutoff     =      42.0000  Ry
     charge density cutoff     =     252.0000  Ry
     convergence threshold     =      1.0E-08
     mixing beta               =       0.7000
     number of iterations used =            8  plain     mixing
     Exchange-correlation      =  SLA  PW   PBX  PBC ( 1  4  3  4 0 0)

     celldm(1)=   7.789000  celldm(2)=   0.000000  celldm(3)=   0.000000
     celldm(4)=   0.000000  celldm(5)=   0.000000  celldm(6)=   0.000000

     crystal axes: (cart. coord. in units of alat)
               a(1) = (   1.000000   0.000000   0.000000 )
               a(2) = (   0.500000   0.866025   0.000000 )
               a(3) = (   0.000000   0.000000   3.032120 )

     reciprocal axes: (cart. coord. in units 2 pi/alat)
               b(1) = (  1.000000 -0.577350  0.000000 )
               b(2) = (  0.000000  1.154701  0.000000 )
               b(3) = (  0.000000  0.000000  0.329802 )

     PseudoPot. # 1 for Pb read from file:
     ./Pb.UPF
     MD5 check sum: 6028b95c5a6d19f69fe660acfe6aaac3
     Pseudo is Projector augmented-wave + core cor, Zval = 14.0
     Generated using "atomic" code by A. Dal Corso  v.6.3
     Shape of augmentation charge: PSQ
     Using radial grid of 1281 points,  6 beta functions with:
                l(1) =   0
                l(2) =   0
                l(3) =   1
                l(4) =   1
                l(5) =   2
                l(6) =   2
     Q(r) pseudized with 0 coefficients

     PseudoPot. # 2 for Te read from file:
     ./Te.UPF
     MD5 check sum: aca3ac145373e32ea850d75d9135ff66
     Pseudo is Projector augmented-wave + core cor, Zval = 16.0
     Generated using "atomic" code by A. Dal Corso  v.5.0.2 svn rev. 9415
     Shape of augmentation charge: PSQ
     Using radial grid of 1245 points,  6 beta functions with:
                l(1) =   0
                l(2) =   0
                l(3) =   1
                l(4) =   1
                l(5) =   2
                l(6) =   2
     Q(r) pseudized with 0 coefficients

     atomic species   valence    mass     pseudopotential
        Pb            14.00   207.20000     Pb( 1.00)
        Te            16.00   127.60000     Te( 1.00)

     No symmetry found

   Cartesian axes

     site n.     atom                  positions (alat units)
         1           Pb  tau(   1) = (   0.0000000   0.0000000   0.2112435  )
         2           Te  tau(   2) = (   0.5000000   0.2886751  -0.2059024  )

     number of k points=   400

     Number of k-points >= 100: set verbosity='high' to print them.

     Check: negative/imaginary core charge=   -0.000013    0.000000

     Initial potential from superposition of free atoms

     starting charge   29.99743, renormalised to   30.00000

     negative rho (up, down):  2.606E-05 0.000E+00
     Starting wfc are   18 randomized atomic wfcs +    2 random wfc

     Self-consistent Calculation

     iteration #  1     ecut=    42.00 Ry     beta=0.70
     Davidson diagonalization with overlap
     ethr =  1.00E-02,  avg # of iterations =  5.8

     Threshold (ethr) on eigenvalues was too large:
     Diagonalizing with lowered threshold

     Davidson diagonalization with overlap
     ethr =  2.24E-04,  avg # of iterations =  3.5

     negative rho (up, down):  2.797E-05 0.000E+00

     total energy              =   -1382.73775656 Ry
     Harris-Foulkes estimate   =   -1382.78424560 Ry
     estimated scf accuracy    <       0.06673253 Ry

[...]

     total energy              =   -1382.77258115 Ry
     Harris-Foulkes estimate   =   -1382.77258116 Ry
     estimated scf accuracy    <       0.00000005 Ry

     iteration #  8     ecut=    42.00 Ry     beta=0.70
     Davidson diagonalization with overlap
     ethr =  1.74E-10,  avg # of iterations =  3.0

[...]

     End of self-consistent calculation

     Number of k-points >= 100: set verbosity='high' to print the bands.

     highest occupied, lowest unoccupied level (ev):     0.1405    1.7367

!    total energy              =   -1382.77258117 Ry
     Harris-Foulkes estimate   =   -1382.77258117 Ry
     estimated scf accuracy    <          1.8E-09 Ry

     total all-electron energy =    -55353.289531 Ry

     The total energy is the sum of the following terms:

     one-electron contribution =    -582.06409601 Ry
     hartree contribution      =     306.47360314 Ry
     xc contribution           =     -78.48523481 Ry
     ewald contribution        =      21.47045071 Ry
     one-center paw contrib.   =   -1050.16730420 Ry

     convergence has been achieved in   8 iterations

     negative rho (up, down):  1.374E-05 0.000E+00

     Forces acting on atoms (cartesian axes, Ry/au):

     atom    1 type  1   force =    -0.00000170   -0.00000011    0.02008554
     atom    2 type  2   force =     0.00000170    0.00000011   -0.02008554

     Total force =     0.028405     Total SCF correction =     0.000139

     Computing stress (Cartesian axis) and pressure

     negative rho (up, down):  1.374E-05 0.000E+00
          total   stress  (Ry/bohr**3)                   (kbar)     P=    0.06
   0.00001754   0.00000000   0.00000000          2.58      0.00      0.00
   0.00000000   0.00001755   0.00000000          0.00      2.58      0.00
   0.00000000   0.00000000  -0.00003385          0.00      0.00     -4.98

     Writing output data file pbte.save

     General routines

   This run was terminated on:  10:33:55  21Sep2020

   JOB DONE.