     Program PWSCF v.6.4.1 starts on 16Oct2023 at  8: 5: 4

     R & G space division:  proc/nbgrp/npool/nimage =       4
     Waiting for input...
     Reading input from standard input
Warning: card &IONS ignored
Warning: card / ignored
Warning: card &CELL ignored
Warning: card / ignored

     Current dimensions of program PWSCF are:
     Max number of different atomic species (ntypx) = 10
     Max number of k-points (npk) =  40000
     Max angular momentum in pseudopotentials (lmaxx) =  3
               file Sn.pz-dn-kjpaw_psl.0.2.UPF: wavefunction(s)  5P 4D renormalized
               file Te.pz-dn-kjpaw_psl.0.2.2.UPF: wavefunction(s)  5S 5P 4D renormalized

     Subspace diagonalization in iterative solution of the eigenvalue problem:
     a serial algorithm will be used

     Title:
      PbTe_PZ

     bravais-lattice index     =            0
     lattice parameter (alat)  =       8.0405  a.u.
     unit-cell volume          =    1559.4281 (a.u.)^3
     number of atoms/cell      =            2
     number of atomic types    =            2
     number of electrons       =        30.00
     number of Kohn-Sham states=           40
     kinetic-energy cutoff     =      50.0000  Ry
     charge density cutoff     =     400.0000  Ry
     convergence threshold     =      1.0E-08
     mixing beta               =       0.7000
     number of iterations used =            8  plain     mixing
     Exchange-correlation      = SLA PZ NOGX NOGC ( 1  1  0  0 0 0)

     celldm(1)=   8.040469  celldm(2)=   0.000000  celldm(3)=   0.000000
     celldm(4)=   0.000000  celldm(5)=   0.000000  celldm(6)=   0.000000

     crystal axes: (cart. coord. in units of alat)
               a(1) = (   1.000000   0.000000   0.000000 )
               a(2) = (   0.000000   1.000000   0.000000 )
               a(3) = (   0.000000   0.000000   3.000000 )

     reciprocal axes: (cart. coord. in units 2 pi/alat)
               b(1) = (  1.000000  0.000000  0.000000 )
               b(2) = (  0.000000  1.000000  0.000000 )
               b(3) = (  0.000000  0.000000  0.333333 )

     PseudoPot. # 1 for Sn read from file:
     /home/raagya/pseudo/Sn.pz-dn-kjpaw_psl.0.2.UPF
     MD5 check sum: 4ae5dc40354335ee230663518864dfb4
     Pseudo is Projector augmented-wave + core cor, Zval = 14.0
     Generated using "atomic" code by A. Dal Corso v.5.0.2 svn rev. 9415
     Shape of augmentation charge: BESSEL
     Using radial grid of 1243 points,  6 beta functions with:
                l(1) =   0
                l(2) =   0
                l(3) =   1
                l(4) =   1
                l(5) =   2
                l(6) =   2
     Q(r) pseudized with 0 coefficients

     PseudoPot. # 2 for Te read from file:
     /home/raagya/pseudo/Te.pz-dn-kjpaw_psl.0.2.2.UPF
     MD5 check sum: 848335cf92ad1717ddde3348b6640de7
     Pseudo is Projector augmented-wave + core cor, Zval = 16.0
     Generated using "atomic" code by A. Dal Corso v.5.0.2 svn rev. 9415
     Shape of augmentation charge: PSQ
     Using radial grid of 1245 points,  6 beta functions with:
                l(1) =   0
                l(2) =   0
                l(3) =   1
                l(4) =   1
                l(5) =   2
                l(6) =   2
     Q(r) pseudized with 0 coefficients

     atomic species   valence    mass     pseudopotential
        Sn            14.00   118.71000     Sn( 1.00)
        Te            16.00   127.60000     Te( 1.00)

     No symmetry found

                                    s                        frac. trans.

      isym =  1     identity

 cryst.   s( 1) = (     1          0          0      )
                  (     0          1          0      )
                  (     0          0          1      )

 cart.    s( 1) = (  1.0000000  0.0000000  0.0000000 )
                  (  0.0000000  1.0000000  0.0000000 )
                  (  0.0000000  0.0000000  1.0000000 )

   Cartesian axes

     site n.     atom                  positions (alat units)
         1           Sn  tau(   1) = (   0.0000000   0.0000000   0.0000000  )
         2           Te  tau(   2) = (   0.5000000   0.5000000   0.0000000  )

   Crystallographic axes

     site n.     atom                  positions (cryst. coord.)
         1           Sn  tau(   1) = (  0.0000000  0.0000000  0.0000000  )
         2           Te  tau(   2) = (  0.5000000  0.5000000  0.0000000  )

     number of k points=  1600  Fermi-Dirac smearing, width (Ry)=  0.0030
                       cart. coord. in units 2pi/alat
        k(    1) = (   0.0000000   0.0000000   0.0000000), wk =   0.0012500
        k(    2) = (   0.0000000   0.0250000   0.0000000), wk =   0.0012500
        k(    3) = (   0.0000000   0.0500000   0.0000000), wk =   0.0012500
        k(    4) = (   0.0000000   0.0750000   0.0000000), wk =   0.0012500
        k(    5) = (   0.0000000   0.1000000   0.0000000), wk =   0.0012500
        k(    6) = (   0.0000000   0.1250000   0.0000000), wk =   0.0012500
        k(    7) = (   0.0000000   0.1500000   0.0000000), wk =   0.0012500
        k(    8) = (   0.0000000   0.1750000   0.0000000), wk =   0.0012500
        k(    9) = (   0.0000000   0.2000000   0.0000000), wk =   0.0012500
        k(   10) = (   0.0000000   0.2250000   0.0000000), wk =   0.0012500
        k(   11) = (   0.0000000   0.2500000   0.0000000), wk =   0.0012500
        k(   12) = (   0.0000000   0.2750000   0.0000000), wk =   0.0012500
        k(   13) = (   0.0000000   0.3000000   0.0000000), wk =   0.0012500
        k(   14) = (   0.0000000   0.3250000   0.0000000), wk =   0.0012500
        k(   15) = (   0.0000000   0.3500000   0.0000000), wk =   0.0012500
        k(   16) = (   0.0000000   0.3750000   0.0000000), wk =   0.0012500
        k(   17) = (   0.0000000   0.4000000   0.0000000), wk =   0.0012500
        k(   18) = (   0.0000000   0.4250000   0.0000000), wk =   0.0012500
        k(   19) = (   0.0000000   0.4500000   0.0000000), wk =   0.0012500
        k(   20) = (   0.0000000   0.4750000   0.0000000), wk =   0.0012500
        k(   21) = (   0.0000000  -0.5000000   0.0000000), wk =   0.0012500
        k(   22) = (   0.0000000  -0.4750000   0.0000000), wk =   0.0012500
        k(   23) = (   0.0000000  -0.4500000   0.0000000), wk =   0.0012500
        k(   24) = (   0.0000000  -0.4250000   0.0000000), wk =   0.0012500
        k(   25) = (   0.0000000  -0.4000000   0.0000000), wk =   0.0012500
        k(   26) = (   0.0000000  -0.3750000   0.0000000), wk =   0.0012500
        k(   27) = (   0.0000000  -0.3500000   0.0000000), wk =   0.0012500
        k(   28) = (   0.0000000  -0.3250000   0.0000000), wk =   0.0012500
        k(   29) = (   0.0000000  -0.3000000   0.0000000), wk =   0.0012500
        k(   30) = (   0.0000000  -0.2750000   0.0000000), wk =   0.0012500
        k(   31) = (   0.0000000  -0.2500000   0.0000000), wk =   0.0012500
        k(   32) = (   0.0000000  -0.2250000   0.0000000), wk =   0.0012500
        k(   33) = (   0.0000000  -0.2000000   0.0000000), wk =   0.0012500
        k(   34) = (   0.0000000  -0.1750000   0.0000000), wk =   0.0012500
        k(   35) = (   0.0000000  -0.1500000   0.0000000), wk =   0.0012500
        k(   36) = (   0.0000000  -0.1250000   0.0000000), wk =   0.0012500
        k(   37) = (   0.0000000  -0.1000000   0.0000000), wk =   0.0012500
        k(   38) = (   0.0000000  -0.0750000   0.0000000), wk =   0.0012500
        k(   39) = (   0.0000000  -0.0500000   0.0000000), wk =   0.0012500
        k(   40) = (   0.0000000  -0.0250000   0.0000000), wk =   0.0012500
        k(   41) = (   0.0250000   0.0000000   0.0000000), wk =   0.0012500
        k(   42) = (   0.0250000   0.0250000   0.0000000), wk =   0.0012500
        k(   43) = (   0.0250000   0.0500000   0.0000000), wk =   0.0012500
        k(   44) = (   0.0250000   0.0750000   0.0000000), wk =   0.0012500
        k(   45) = (   0.0250000   0.1000000   0.0000000), wk =   0.0012500
        k(   46) = (   0.0250000   0.1250000   0.0000000), wk =   0.0012500
        k(   47) = (   0.0250000   0.1500000   0.0000000), wk =   0.0012500
        k(   48) = (   0.0250000   0.1750000   0.0000000), wk =   0.0012500
        k(   49) = (   0.0250000   0.2000000   0.0000000), wk =   0.0012500
        k(   50) = (   0.0250000   0.2250000   0.0000000), wk =   0.0012500
        k(   51) = (   0.0250000   0.2500000   0.0000000), wk =   0.0012500
        k(   52) = (   0.0250000   0.2750000   0.0000000), wk =   0.0012500
        k(   53) = (   0.0250000   0.3000000   0.0000000), wk =   0.0012500
        k(   54) = (   0.0250000   0.3250000   0.0000000), wk =   0.0012500
        k(   55) = (   0.0250000   0.3500000   0.0000000), wk =   0.0012500
        k(   56) = (   0.0250000   0.3750000   0.0000000), wk =   0.0012500
        k(   57) = (   0.0250000   0.4000000   0.0000000), wk =   0.0012500
        k(   58) = (   0.0250000   0.4250000   0.0000000), wk =   0.0012500
        k(   59) = (   0.0250000   0.4500000   0.0000000), wk =   0.0012500
        k(   60) = (   0.0250000   0.4750000   0.0000000), wk =   0.0012500
[...]
        k( 1586) = (  -0.0250000  -0.3750000   0.0000000), wk =   0.0012500
        k( 1587) = (  -0.0250000  -0.3500000   0.0000000), wk =   0.0012500
        k( 1588) = (  -0.0250000  -0.3250000   0.0000000), wk =   0.0012500
        k( 1589) = (  -0.0250000  -0.3000000   0.0000000), wk =   0.0012500
        k( 1590) = (  -0.0250000  -0.2750000   0.0000000), wk =   0.0012500
        k( 1591) = (  -0.0250000  -0.2500000   0.0000000), wk =   0.0012500
        k( 1592) = (  -0.0250000  -0.2250000   0.0000000), wk =   0.0012500
        k( 1593) = (  -0.0250000  -0.2000000   0.0000000), wk =   0.0012500
        k( 1594) = (  -0.0250000  -0.1750000   0.0000000), wk =   0.0012500
        k( 1595) = (  -0.0250000  -0.1500000   0.0000000), wk =   0.0012500
        k( 1596) = (  -0.0250000  -0.1250000   0.0000000), wk =   0.0012500
        k( 1597) = (  -0.0250000  -0.1000000   0.0000000), wk =   0.0012500
        k( 1598) = (  -0.0250000  -0.0750000   0.0000000), wk =   0.0012500
        k( 1599) = (  -0.0250000  -0.0500000   0.0000000), wk =   0.0012500
        k( 1600) = (  -0.0250000  -0.0250000   0.0000000), wk =   0.0012500

                       cryst. coord.
        k(    1) = (   0.0000000   0.0000000   0.0000000), wk =   0.0012500
        k(    2) = (   0.0000000   0.0250000   0.0000000), wk =   0.0012500
        k(    3) = (   0.0000000   0.0500000   0.0000000), wk =   0.0012500
        k(    4) = (   0.0000000   0.0750000   0.0000000), wk =   0.0012500
        k(    5) = (   0.0000000   0.1000000   0.0000000), wk =   0.0012500
        k(    6) = (   0.0000000   0.1250000   0.0000000), wk =   0.0012500
        k(    7) = (   0.0000000   0.1500000   0.0000000), wk =   0.0012500
        k(    8) = (   0.0000000   0.1750000   0.0000000), wk =   0.0012500
        k(    9) = (   0.0000000   0.2000000   0.0000000), wk =   0.0012500
        k(   10) = (   0.0000000   0.2250000   0.0000000), wk =   0.0012500
        k(   11) = (   0.0000000   0.2500000   0.0000000), wk =   0.0012500
        k(   12) = (   0.0000000   0.2750000   0.0000000), wk =   0.0012500
        k(   13) = (   0.0000000   0.3000000   0.0000000), wk =   0.0012500
        k(   14) = (   0.0000000   0.3250000   0.0000000), wk =   0.0012500
        k(   15) = (   0.0000000   0.3500000   0.0000000), wk =   0.0012500
        k(   16) = (   0.0000000   0.3750000   0.0000000), wk =   0.0012500
        k(   17) = (   0.0000000   0.4000000   0.0000000), wk =   0.0012500
        k(   18) = (   0.0000000   0.4250000   0.0000000), wk =   0.0012500
        k(   19) = (   0.0000000   0.4500000   0.0000000), wk =   0.0012500
        k(   20) = (   0.0000000   0.4750000   0.0000000), wk =   0.0012500
        k(   21) = (   0.0000000  -0.5000000   0.0000000), wk =   0.0012500
        k(   22) = (   0.0000000  -0.4750000   0.0000000), wk =   0.0012500
        k(   23) = (   0.0000000  -0.4500000   0.0000000), wk =   0.0012500
        k(   24) = (   0.0000000  -0.4250000   0.0000000), wk =   0.0012500
        k(   25) = (   0.0000000  -0.4000000   0.0000000), wk =   0.0012500
        k(   26) = (   0.0000000  -0.3750000   0.0000000), wk =   0.0012500
        k(   27) = (   0.0000000  -0.3500000   0.0000000), wk =   0.0012500
        k(   28) = (   0.0000000  -0.3250000   0.0000000), wk =   0.0012500
        k(   29) = (   0.0000000  -0.3000000   0.0000000), wk =   0.0012500
        k(   30) = (   0.0000000  -0.2750000   0.0000000), wk =   0.0012500
        k(   31) = (   0.0000000  -0.2500000   0.0000000), wk =   0.0012500
        k(   32) = (   0.0000000  -0.2250000   0.0000000), wk =   0.0012500
        k(   33) = (   0.0000000  -0.2000000   0.0000000), wk =   0.0012500
        k(   34) = (   0.0000000  -0.1750000   0.0000000), wk =   0.0012500
        k(   35) = (   0.0000000  -0.1500000   0.0000000), wk =   0.0012500
        k(   36) = (   0.0000000  -0.1250000   0.0000000), wk =   0.0012500
        k(   37) = (   0.0000000  -0.1000000   0.0000000), wk =   0.0012500
        k(   38) = (   0.0000000  -0.0750000   0.0000000), wk =   0.0012500
        k(   39) = (   0.0000000  -0.0500000   0.0000000), wk =   0.0012500
        k(   40) = (   0.0000000  -0.0250000   0.0000000), wk =   0.0012500
        k(   41) = (   0.0250000   0.0000000   0.0000000), wk =   0.0012500
        k(   42) = (   0.0250000   0.0250000   0.0000000), wk =   0.0012500
        k(   43) = (   0.0250000   0.0500000   0.0000000), wk =   0.0012500
        k(   44) = (   0.0250000   0.0750000   0.0000000), wk =   0.0012500
        k(   45) = (   0.0250000   0.1000000   0.0000000), wk =   0.0012500
        k(   46) = (   0.0250000   0.1250000   0.0000000), wk =   0.0012500
        k(   47) = (   0.0250000   0.1500000   0.0000000), wk =   0.0012500
        k(   48) = (   0.0250000   0.1750000   0.0000000), wk =   0.0012500
        k(   49) = (   0.0250000   0.2000000   0.0000000), wk =   0.0012500
        k(   50) = (   0.0250000   0.2250000   0.0000000), wk =   0.0012500
        k(   51) = (   0.0250000   0.2500000   0.0000000), wk =   0.0012500
        k(   52) = (   0.0250000   0.2750000   0.0000000), wk =   0.0012500
        k(   53) = (   0.0250000   0.3000000   0.0000000), wk =   0.0012500
        k(   54) = (   0.0250000   0.3250000   0.0000000), wk =   0.0012500
        k(   55) = (   0.0250000   0.3500000   0.0000000), wk =   0.0012500
        k(   56) = (   0.0250000   0.3750000   0.0000000), wk =   0.0012500
        k(   57) = (   0.0250000   0.4000000   0.0000000), wk =   0.0012500
        k(   58) = (   0.0250000   0.4250000   0.0000000), wk =   0.0012500
        k(   59) = (   0.0250000   0.4500000   0.0000000), wk =   0.0012500
        k(   60) = (   0.0250000   0.4750000   0.0000000), wk =   0.0012500
[...]
        k( 1586) = (  -0.0250000  -0.3750000   0.0000000), wk =   0.0012500
        k( 1587) = (  -0.0250000  -0.3500000   0.0000000), wk =   0.0012500
        k( 1588) = (  -0.0250000  -0.3250000   0.0000000), wk =   0.0012500
        k( 1589) = (  -0.0250000  -0.3000000   0.0000000), wk =   0.0012500
        k( 1590) = (  -0.0250000  -0.2750000   0.0000000), wk =   0.0012500
        k( 1591) = (  -0.0250000  -0.2500000   0.0000000), wk =   0.0012500
        k( 1592) = (  -0.0250000  -0.2250000   0.0000000), wk =   0.0012500
        k( 1593) = (  -0.0250000  -0.2000000   0.0000000), wk =   0.0012500
        k( 1594) = (  -0.0250000  -0.1750000   0.0000000), wk =   0.0012500
        k( 1595) = (  -0.0250000  -0.1500000   0.0000000), wk =   0.0012500
        k( 1596) = (  -0.0250000  -0.1250000   0.0000000), wk =   0.0012500
        k( 1597) = (  -0.0250000  -0.1000000   0.0000000), wk =   0.0012500
        k( 1598) = (  -0.0250000  -0.0750000   0.0000000), wk =   0.0012500
        k( 1599) = (  -0.0250000  -0.0500000   0.0000000), wk =   0.0012500
        k( 1600) = (  -0.0250000  -0.0250000   0.0000000), wk =   0.0012500

     Check: negative core charge=   -0.000014

     Initial potential from superposition of free atoms

     starting charge   29.99873, renormalised to   30.00000

     negative rho (up, down):  2.157E-04 0.000E+00
     Starting wfcs are   18 randomized atomic wfcs +   22 random wfcs
     Checking if some PAW data can be deallocated...

     Self-consistent Calculation

     iteration #  1     ecut=    50.00 Ry     beta= 0.70
     Davidson diagonalization with overlap
     ethr =  1.00E-02,  avg # of iterations =  6.0

     Threshold (ethr) on eigenvalues was too large:
     Diagonalizing with lowered threshold

     Davidson diagonalization with overlap
     ethr =  2.00E-04,  avg # of iterations =  5.8

     negative rho (up, down):  2.331E-04 0.000E+00

     total energy              =    -932.22129846 Ry
     Harris-Foulkes estimate   =    -932.26262497 Ry
     estimated scf accuracy    <       0.06004620 Ry

[...]

     total energy              =    -932.24384897 Ry
     Harris-Foulkes estimate   =    -932.24384898 Ry
     estimated scf accuracy    <       0.00000001 Ry

     iteration #  9     ecut=    50.00 Ry     beta= 0.70
     Davidson diagonalization with overlap
     ethr =  3.51E-11,  avg # of iterations =  1.9

[...]

     End of self-consistent calculation

          k = 0.0000 0.0000 0.0000 (  9267 PWs)   bands (ev):

   -37.1767 -37.1682 -37.1204 -37.1204 -37.1124 -22.4046 -22.3484 -22.3484
   -22.2830 -22.2750 -12.6511  -5.6663  -3.6025  -3.3373  -3.3373   1.5697
     2.2942   3.0215   3.8579   3.9312   4.5934   4.5934   6.9388   6.9388
     7.5883   8.1436   8.3006   8.5005   9.8605  10.4145  10.4145  10.4209
    10.9794  11.7473  12.0702  12.0934  12.0935  12.4029  12.4032  12.6240

     occupation numbers
     1.0000   1.0000   1.0000   1.0000   1.0000   1.0000   1.0000   1.0000
     1.0000   1.0000   1.0000   1.0000   1.0000   1.0000   1.0000   0.0000
     0.0000   0.0000   0.0000   0.0000   0.0000   0.0000   0.0000   0.0000
     0.0000   0.0000   0.0000   0.0000   0.0000   0.0000   0.0000   0.0000
     0.0000   0.0000   0.0000   0.0000   0.0000   0.0000   0.0000   0.0000

[...]

          k = 0.4750-0.0250 0.0000 (  9316 PWs)   bands (ev):

[...]

          k =-0.5000 0.0000 0.0000 (  9310 PWs)   bands (ev):

[...]

          k =-0.0250-0.0250 0.0000 (  9283 PWs)   bands (ev):

   -37.1767 -37.1682 -37.1204 -37.1204 -37.1124 -22.4045 -22.3485 -22.3484
   -22.2831 -22.2749 -12.6435  -5.7308  -3.5932  -3.3577  -3.2485   1.5457
     2.3044   3.0556   3.8662   3.9414   4.4463   4.6085   6.8425   6.9797
     7.5996   8.1536   8.4162   8.5947   9.8206  10.1606  10.2183  10.8114
    11.1644  11.5648  11.6835  11.9224  12.1232  12.5008  12.5981  12.8449

     occupation numbers
     1.0000   1.0000   1.0000   1.0000   1.0000   1.0000   1.0000   1.0000
     1.0000   1.0000   1.0000   1.0000   1.0000   1.0000   1.0000   0.0000
     0.0000   0.0000   0.0000   0.0000   0.0000   0.0000   0.0000   0.0000
     0.0000   0.0000   0.0000   0.0000   0.0000   0.0000   0.0000   0.0000
     0.0000   0.0000   0.0000   0.0000   0.0000   0.0000   0.0000   0.0000

     the Fermi energy is    -0.6551 ev

!    total energy              =    -932.24384898 Ry
     Harris-Foulkes estimate   =    -932.24384898 Ry
     estimated scf accuracy    <          7.4E-11 Ry

     total all-electron energy =    -25921.987271 Ry

     The total energy is the sum of the following terms:

     one-electron contribution =    -650.03205788 Ry
     hartree contribution      =     328.70107049 Ry
     xc contribution           =     -72.23381943 Ry
     ewald contribution        =      42.37943829 Ry
     one-center paw contrib.   =    -581.05766339 Ry
      -> PAW hartree energy AE =     112.66120939 Ry
      -> PAW hartree energy PS =    -103.03598757 Ry
      -> PAW xc energy AE      =    -318.44608213 Ry
      -> PAW xc energy PS      =      26.43109993 Ry
      -> total E_H with PAW    =     338.32629230 Ry
      -> total E_XC with PAW   =    -364.24880163 Ry
     smearing contrib. (-TS)   =      -0.00081705 Ry

     convergence has been achieved in   9 iterations

     negative rho (up, down):  2.212E-04 0.000E+00

     Forces acting on atoms (cartesian axes, Ry/au):

     atom    1 type  1   force =    -0.00000199   -0.00000152   -0.00000303
     atom    2 type  2   force =     0.00000199    0.00000152    0.00000303
     The non-local contrib.  to forces
     atom    1 type  1   force =     0.00000154   -0.00000099   -0.00001817
     atom    2 type  2   force =     0.00000689   -0.00000326   -0.00000628
     The ionic contribution  to forces
     atom    1 type  1   force =    -0.00000000   -0.00000000    0.00000000
     atom    2 type  2   force =     0.00000000    0.00000000   -0.00000000
     The local contribution  to forces
     atom    1 type  1   force =    -0.00000069    0.00000196    0.00002691
     atom    2 type  2   force =     0.00000031   -0.00000009    0.00002391
     The core correction contribution to forces
     atom    1 type  1   force =    -0.00000001    0.00000002    0.00000033
     atom    2 type  2   force =    -0.00000008    0.00000003    0.00000019
     The Hubbard contrib.    to forces
     atom    1 type  1   force =     0.00000000    0.00000000    0.00000000
     atom    2 type  2   force =     0.00000000    0.00000000    0.00000000
     The SCF correction term to forces
     atom    1 type  1   force =     0.00000092   -0.00000420   -0.00002768
     atom    2 type  2   force =    -0.00000137    0.00000315   -0.00003035

     Total force =     0.000006     Total SCF correction =     0.000041
     SCF correction compared to forces is large: reduce conv_thr to get better values

     Computing stress (Cartesian axis) and pressure

     negative rho (up, down):  2.212E-04 0.000E+00
          total   stress  (Ry/bohr**3)                   (kbar)     P=   -0.46
  -0.00000301   0.00000000   0.00000000         -0.44      0.00      0.00
   0.00000000  -0.00000301   0.00000000          0.00     -0.44      0.00
   0.00000000   0.00000000  -0.00000343          0.00      0.00     -0.50

     kinetic stress (kbar)   2586.06      0.00     -0.00
                                0.00   2586.06     -0.00
                               -0.00     -0.00   2625.06

     local   stress (kbar) -46484.35      0.00     -0.00
                                0.00 -46484.35     -0.00
                               -0.00     -0.00  51591.30

     nonloc. stress (kbar)    952.25      0.00      0.00
                                0.00    952.25      0.00
                                0.00      0.00    920.77

     hartree stress (kbar)  25778.19     -0.00      0.00
                               -0.00  25778.19      0.00
                                0.00      0.00 -20549.11

     exc-cor stress (kbar)   1694.57      0.00      0.00
                                0.00   1694.57      0.00
                                0.00      0.00   1694.57

     corecor stress (kbar)  -3112.09      0.00     -0.00
                                0.00  -3112.09     -0.00
                               -0.00     -0.00  -3110.97

     ewald   stress (kbar)  18584.94     -0.00      0.00
                               -0.00  18584.94      0.00
                                0.00      0.00 -33172.12

     hubbard stress (kbar)      0.00      0.00      0.00
                                0.00      0.00      0.00
                                0.00      0.00      0.00

     london  stress (kbar)      0.00      0.00      0.00
                                0.00      0.00      0.00
                                0.00      0.00      0.00

     DFT-D3  stress (kbar)      0.00      0.00      0.00
                                0.00      0.00      0.00
                                0.00      0.00      0.00

     XDM     stress (kbar)      0.00      0.00      0.00
                                0.00      0.00      0.00
                                0.00      0.00      0.00

     dft-nl  stress (kbar)      0.00      0.00      0.00
                                0.00      0.00      0.00
                                0.00      0.00      0.00

     TS-vdW  stress (kbar)      0.00      0.00      0.00
                                0.00      0.00      0.00
                                0.00      0.00      0.00

     Writing output data file snte.save/

     General routines

     Parallel routines

     PAW routines

   This run was terminated on:   9:34: 0  16Oct2023

   JOB DONE.