     Program PWSCF v.6.1 (svn rev. 13369) starts on 20Sep2020 at 19:36:26

     Current dimensions of program PWSCF are:
     Max number of different atomic species (ntypx) = 10
     Max number of k-points (npk) =  40000
     Max angular momentum in pseudopotentials (lmaxx) =  3
               file Pb.UPF: wavefunction(s)  6S 6P 5D renormalized
               file Te.UPF: wavefunction(s)  5S 5P 4D renormalized

     Title:
      PbTe_PZ

     bravais-lattice index     =            0
     lattice parameter (alat)  =       7.3000  a.u.
     unit-cell volume          =    1302.9248 (a.u.)^3
     number of atoms/cell      =            2
     number of atomic types    =            2
     number of electrons       =        30.00
     number of Kohn-Sham states=           20
     kinetic-energy cutoff     =      42.0000  Ry
     charge density cutoff     =     252.0000  Ry
     convergence threshold     =      1.0E-08
     mixing beta               =       0.7000
     number of iterations used =            8  plain     mixing
     Exchange-correlation      =  SLA  PW   PBX  PBC ( 1  4  3  4 0 0)

     celldm(1)=   7.300000  celldm(2)=   0.000000  celldm(3)=   0.000000
     celldm(4)=   0.000000  celldm(5)=   0.000000  celldm(6)=   0.000000

     crystal axes: (cart. coord. in units of alat)
               a(1) = (   0.995641   0.000039   0.000000 )
               a(2) = (   0.000039   0.995633   0.000000 )
               a(3) = (   0.000000   0.000000   3.378690 )

     reciprocal axes: (cart. coord. in units 2 pi/alat)
               b(1) = (  1.004378 -0.000039  0.000000 )
               b(2) = ( -0.000039  1.004386  0.000000 )
               b(3) = (  0.000000  0.000000  0.295973 )

     PseudoPot. # 1 for Pb read from file:
     ./Pb.UPF
     MD5 check sum: 6028b95c5a6d19f69fe660acfe6aaac3
     Pseudo is Projector augmented-wave + core cor, Zval = 14.0
     Generated using "atomic" code by A. Dal Corso  v.6.3
     Shape of augmentation charge: PSQ
     Using radial grid of 1281 points,  6 beta functions with:
                l(1) =   0
                l(2) =   0
                l(3) =   1
                l(4) =   1
                l(5) =   2
                l(6) =   2
     Q(r) pseudized with 0 coefficients

     PseudoPot. # 2 for Te read from file:
     ./Te.UPF
     MD5 check sum: aca3ac145373e32ea850d75d9135ff66
     Pseudo is Projector augmented-wave + core cor, Zval = 16.0
     Generated using "atomic" code by A. Dal Corso  v.5.0.2 svn rev. 9415
     Shape of augmentation charge: PSQ
     Using radial grid of 1245 points,  6 beta functions with:
                l(1) =   0
                l(2) =   0
                l(3) =   1
                l(4) =   1
                l(5) =   2
                l(6) =   2
     Q(r) pseudized with 0 coefficients

     atomic species   valence    mass     pseudopotential
        Pb            14.00   207.20000     Pb( 1.00)
        Te            16.00   127.60000     Te( 1.00)

     No symmetry found

   Cartesian axes

     site n.     atom                  positions (alat units)
         1           Pb  tau(   1) = (   0.0012479   0.0026000   0.2031259  )
         2           Te  tau(   2) = (   0.4985109   0.4992393  -0.1693390  )

     number of k points=   400

     Number of k-points >= 100: set verbosity='high' to print them.

     Check: negative/imaginary core charge=   -0.000012    0.000000

     Initial potential from superposition of free atoms

     starting charge   29.99743, renormalised to   30.00000

     negative rho (up, down):  5.016E-05 0.000E+00
     Starting wfc are   18 randomized atomic wfcs +    2 random wfc

     Self-consistent Calculation

     iteration #  1     ecut=    42.00 Ry     beta=0.70
     Davidson diagonalization with overlap
     ethr =  1.00E-02,  avg # of iterations =  6.3

     Threshold (ethr) on eigenvalues was too large:
     Diagonalizing with lowered threshold

     Davidson diagonalization with overlap
     ethr =  3.16E-04,  avg # of iterations =  3.2

     negative rho (up, down):  6.164E-05 0.000E+00

     total energy              =   -1382.70134707 Ry
     Harris-Foulkes estimate   =   -1382.77152782 Ry
     estimated scf accuracy    <       0.09449236 Ry

[...]

     total energy              =   -1382.75154932 Ry
     Harris-Foulkes estimate   =   -1382.75154936 Ry
     estimated scf accuracy    <       0.00000016 Ry

     iteration #  8     ecut=    42.00 Ry     beta=0.70
     Davidson diagonalization with overlap
     ethr =  5.25E-10,  avg # of iterations =  2.9

[...]

     End of self-consistent calculation

     Number of k-points >= 100: set verbosity='high' to print the bands.

     highest occupied, lowest unoccupied level (ev):     0.7369    0.6128

!    total energy              =   -1382.75154937 Ry
     Harris-Foulkes estimate   =   -1382.75154938 Ry
     estimated scf accuracy    <          6.8E-09 Ry

     total all-electron energy =    -55353.268499 Ry

     The total energy is the sum of the following terms:

     one-electron contribution =    -641.48913630 Ry
     hartree contribution      =     335.95393061 Ry
     xc contribution           =     -78.48865547 Ry
     ewald contribution        =      51.43019667 Ry
     one-center paw contrib.   =   -1050.15788487 Ry

     convergence has been achieved in   8 iterations

     negative rho (up, down):  3.914E-05 0.000E+00

     Forces acting on atoms (cartesian axes, Ry/au):

     atom    1 type  1   force =    -0.00015491   -0.00027513    0.01494185
     atom    2 type  2   force =     0.00015491    0.00027513   -0.01494185

     Total force =     0.021136     Total SCF correction =     0.000509

     Computing stress (Cartesian axis) and pressure

     negative rho (up, down):  3.914E-05 0.000E+00
          total   stress  (Ry/bohr**3)                   (kbar)     P=    0.82
   0.00003402  -0.00000003  -0.00000027          5.00     -0.00     -0.04
  -0.00000003   0.00003403  -0.00000056         -0.00      5.01     -0.08
  -0.00000027  -0.00000056  -0.00005134         -0.04     -0.08     -7.55

     Writing output data file pbte.save

     General routines

   This run was terminated on:  20: 6: 6  20Sep2020

   JOB DONE.