     Program PWSCF v.6.4.1 starts on 16Oct2023 at  8: 1:23

     R & G space division:  proc/nbgrp/npool/nimage =       4
     Waiting for input...
     Reading input from standard input
Warning: card &IONS ignored
Warning: card / ignored
Warning: card &CELL ignored
Warning: card / ignored

     Current dimensions of program PWSCF are:
     Max number of different atomic species (ntypx) = 10
     Max number of k-points (npk) =  40000
     Max angular momentum in pseudopotentials (lmaxx) =  3
               file Sn.pz-dn-kjpaw_psl.0.2.UPF: wavefunction(s)  5P 4D renormalized
               file Te.pz-dn-kjpaw_psl.0.2.2.UPF: wavefunction(s)  5S 5P 4D renormalized

     Subspace diagonalization in iterative solution of the eigenvalue problem:
     a serial algorithm will be used

     Title:
      PbTe_PZ

     bravais-lattice index     =            0
     lattice parameter (alat)  =       7.8720  a.u.
     unit-cell volume          =    1190.9422 (a.u.)^3
     number of atoms/cell      =            2
     number of atomic types    =            2
     number of electrons       =        30.00
     number of Kohn-Sham states=           80
     kinetic-energy cutoff     =      50.0000  Ry
     charge density cutoff     =     400.0000  Ry
     convergence threshold     =      1.0E-08
     mixing beta               =       0.7000
     number of iterations used =            8  plain     mixing
     Exchange-correlation      = SLA PZ NOGX NOGC ( 1  1  0  0 0 0)

     celldm(1)=   7.872000  celldm(2)=   0.000000  celldm(3)=   0.000000
     celldm(4)=   0.000000  celldm(5)=   0.000000  celldm(6)=   0.000000

     crystal axes: (cart. coord. in units of alat)
               a(1) = (   0.969375   0.000000   0.000000 )
               a(2) = (   0.484687   0.839503   0.000000 )
               a(3) = (   0.000000   0.000000   3.000000 )

     reciprocal axes: (cart. coord. in units 2 pi/alat)
               b(1) = (  1.031593 -0.595590  0.000000 )
               b(2) = (  0.000000  1.191181  0.000000 )
               b(3) = (  0.000000  0.000000  0.333333 )

     PseudoPot. # 1 for Sn read from file:
     /home/raagya/pseudo/Sn.pz-dn-kjpaw_psl.0.2.UPF
     MD5 check sum: 4ae5dc40354335ee230663518864dfb4
     Pseudo is Projector augmented-wave + core cor, Zval = 14.0
     Generated using "atomic" code by A. Dal Corso v.5.0.2 svn rev. 9415
     Shape of augmentation charge: BESSEL
     Using radial grid of 1243 points,  6 beta functions with:
                l(1) =   0
                l(2) =   0
                l(3) =   1
                l(4) =   1
                l(5) =   2
                l(6) =   2
     Q(r) pseudized with 0 coefficients

     PseudoPot. # 2 for Te read from file:
     /home/raagya/pseudo/Te.pz-dn-kjpaw_psl.0.2.2.UPF
     MD5 check sum: 848335cf92ad1717ddde3348b6640de7
     Pseudo is Projector augmented-wave + core cor, Zval = 16.0
     Generated using "atomic" code by A. Dal Corso v.5.0.2 svn rev. 9415
     Shape of augmentation charge: PSQ
     Using radial grid of 1245 points,  6 beta functions with:
                l(1) =   0
                l(2) =   0
                l(3) =   1
                l(4) =   1
                l(5) =   2
                l(6) =   2
     Q(r) pseudized with 0 coefficients

     atomic species   valence    mass     pseudopotential
        Sn            14.00   118.71000     Sn( 1.00)
        Te            16.00   127.60000     Te( 1.00)

     No symmetry found

                                    s                        frac. trans.

      isym =  1     identity

 cryst.   s( 1) = (     1          0          0      )
                  (     0          1          0      )
                  (     0          0          1      )

 cart.    s( 1) = (  1.0000000  0.0000000  0.0000000 )
                  (  0.0000000  1.0000000  0.0000000 )
                  (  0.0000000  0.0000000  1.0000000 )

   Cartesian axes

     site n.     atom                  positions (alat units)
         1           Sn  tau(   1) = (   0.0000000   0.0000000   0.2056922  )
         2           Te  tau(   2) = (   0.4846875   0.2798344  -0.2004077  )

   Crystallographic axes

     site n.     atom                  positions (cryst. coord.)
         1           Sn  tau(   1) = (  0.0000000  0.0000000  0.0685641  )
         2           Te  tau(   2) = (  0.3333333  0.3333333 -0.0668026  )

     number of k points=  1600  Fermi-Dirac smearing, width (Ry)=  0.0030
                       cart. coord. in units 2pi/alat
        k(    1) = (   0.0000000   0.0000000   0.0000000), wk =   0.0012500
        k(    2) = (   0.0000000   0.0297795   0.0000000), wk =   0.0012500
        k(    3) = (   0.0000000   0.0595590   0.0000000), wk =   0.0012500
        k(    4) = (   0.0000000   0.0893385   0.0000000), wk =   0.0012500
        k(    5) = (   0.0000000   0.1191181   0.0000000), wk =   0.0012500
        k(    6) = (   0.0000000   0.1488976   0.0000000), wk =   0.0012500
        k(    7) = (   0.0000000   0.1786771   0.0000000), wk =   0.0012500
        k(    8) = (   0.0000000   0.2084566   0.0000000), wk =   0.0012500
        k(    9) = (   0.0000000   0.2382361   0.0000000), wk =   0.0012500
        k(   10) = (   0.0000000   0.2680156   0.0000000), wk =   0.0012500
        k(   11) = (   0.0000000   0.2977951   0.0000000), wk =   0.0012500
        k(   12) = (   0.0000000   0.3275746   0.0000000), wk =   0.0012500
        k(   13) = (   0.0000000   0.3573542   0.0000000), wk =   0.0012500
        k(   14) = (   0.0000000   0.3871337   0.0000000), wk =   0.0012500
        k(   15) = (   0.0000000   0.4169132   0.0000000), wk =   0.0012500
        k(   16) = (   0.0000000   0.4466927   0.0000000), wk =   0.0012500
        k(   17) = (   0.0000000   0.4764722   0.0000000), wk =   0.0012500
        k(   18) = (   0.0000000   0.5062517   0.0000000), wk =   0.0012500
        k(   19) = (   0.0000000   0.5360312   0.0000000), wk =   0.0012500
        k(   20) = (   0.0000000   0.5658108   0.0000000), wk =   0.0012500
        k(   21) = (   0.0000000  -0.5955903   0.0000000), wk =   0.0012500
        k(   22) = (   0.0000000  -0.5658108   0.0000000), wk =   0.0012500
        k(   23) = (   0.0000000  -0.5360312   0.0000000), wk =   0.0012500
        k(   24) = (   0.0000000  -0.5062517   0.0000000), wk =   0.0012500
        k(   25) = (   0.0000000  -0.4764722   0.0000000), wk =   0.0012500
        k(   26) = (   0.0000000  -0.4466927   0.0000000), wk =   0.0012500
        k(   27) = (   0.0000000  -0.4169132   0.0000000), wk =   0.0012500
        k(   28) = (   0.0000000  -0.3871337   0.0000000), wk =   0.0012500
        k(   29) = (   0.0000000  -0.3573542   0.0000000), wk =   0.0012500
        k(   30) = (   0.0000000  -0.3275746   0.0000000), wk =   0.0012500
        k(   31) = (   0.0000000  -0.2977951   0.0000000), wk =   0.0012500
        k(   32) = (   0.0000000  -0.2680156   0.0000000), wk =   0.0012500
        k(   33) = (   0.0000000  -0.2382361   0.0000000), wk =   0.0012500
        k(   34) = (   0.0000000  -0.2084566   0.0000000), wk =   0.0012500
        k(   35) = (   0.0000000  -0.1786771   0.0000000), wk =   0.0012500
        k(   36) = (   0.0000000  -0.1488976   0.0000000), wk =   0.0012500
        k(   37) = (   0.0000000  -0.1191181   0.0000000), wk =   0.0012500
        k(   38) = (   0.0000000  -0.0893385   0.0000000), wk =   0.0012500
        k(   39) = (   0.0000000  -0.0595590   0.0000000), wk =   0.0012500
        k(   40) = (   0.0000000  -0.0297795   0.0000000), wk =   0.0012500
        k(   41) = (   0.0257898  -0.0148898   0.0000000), wk =   0.0012500
        k(   42) = (   0.0257898   0.0148898   0.0000000), wk =   0.0012500
        k(   43) = (   0.0257898   0.0446693   0.0000000), wk =   0.0012500
        k(   44) = (   0.0257898   0.0744488   0.0000000), wk =   0.0012500
        k(   45) = (   0.0257898   0.1042283   0.0000000), wk =   0.0012500
        k(   46) = (   0.0257898   0.1340078   0.0000000), wk =   0.0012500
        k(   47) = (   0.0257898   0.1637873   0.0000000), wk =   0.0012500
        k(   48) = (   0.0257898   0.1935668   0.0000000), wk =   0.0012500
        k(   49) = (   0.0257898   0.2233464   0.0000000), wk =   0.0012500
        k(   50) = (   0.0257898   0.2531259   0.0000000), wk =   0.0012500
        k(   51) = (   0.0257898   0.2829054   0.0000000), wk =   0.0012500
        k(   52) = (   0.0257898   0.3126849   0.0000000), wk =   0.0012500
        k(   53) = (   0.0257898   0.3424644   0.0000000), wk =   0.0012500
        k(   54) = (   0.0257898   0.3722439   0.0000000), wk =   0.0012500
        k(   55) = (   0.0257898   0.4020234   0.0000000), wk =   0.0012500
        k(   56) = (   0.0257898   0.4318029   0.0000000), wk =   0.0012500
        k(   57) = (   0.0257898   0.4615825   0.0000000), wk =   0.0012500
        k(   58) = (   0.0257898   0.4913620   0.0000000), wk =   0.0012500
        k(   59) = (   0.0257898   0.5211415   0.0000000), wk =   0.0012500
        k(   60) = (   0.0257898   0.5509210   0.0000000), wk =   0.0012500
[...]
        k( 1586) = (  -0.0257898  -0.4318029   0.0000000), wk =   0.0012500
        k( 1587) = (  -0.0257898  -0.4020234   0.0000000), wk =   0.0012500
        k( 1588) = (  -0.0257898  -0.3722439   0.0000000), wk =   0.0012500
        k( 1589) = (  -0.0257898  -0.3424644   0.0000000), wk =   0.0012500
        k( 1590) = (  -0.0257898  -0.3126849   0.0000000), wk =   0.0012500
        k( 1591) = (  -0.0257898  -0.2829054   0.0000000), wk =   0.0012500
        k( 1592) = (  -0.0257898  -0.2531259   0.0000000), wk =   0.0012500
        k( 1593) = (  -0.0257898  -0.2233464   0.0000000), wk =   0.0012500
        k( 1594) = (  -0.0257898  -0.1935668   0.0000000), wk =   0.0012500
        k( 1595) = (  -0.0257898  -0.1637873   0.0000000), wk =   0.0012500
        k( 1596) = (  -0.0257898  -0.1340078   0.0000000), wk =   0.0012500
        k( 1597) = (  -0.0257898  -0.1042283   0.0000000), wk =   0.0012500
        k( 1598) = (  -0.0257898  -0.0744488   0.0000000), wk =   0.0012500
        k( 1599) = (  -0.0257898  -0.0446693   0.0000000), wk =   0.0012500
        k( 1600) = (  -0.0257898  -0.0148898   0.0000000), wk =   0.0012500

                       cryst. coord.
        k(    1) = (   0.0000000   0.0000000   0.0000000), wk =   0.0012500
        k(    2) = (   0.0000000   0.0250000   0.0000000), wk =   0.0012500
        k(    3) = (   0.0000000   0.0500000   0.0000000), wk =   0.0012500
        k(    4) = (   0.0000000   0.0750000   0.0000000), wk =   0.0012500
        k(    5) = (   0.0000000   0.1000000   0.0000000), wk =   0.0012500
        k(    6) = (   0.0000000   0.1250000   0.0000000), wk =   0.0012500
        k(    7) = (   0.0000000   0.1500000   0.0000000), wk =   0.0012500
        k(    8) = (   0.0000000   0.1750000   0.0000000), wk =   0.0012500
        k(    9) = (   0.0000000   0.2000000   0.0000000), wk =   0.0012500
        k(   10) = (   0.0000000   0.2250000   0.0000000), wk =   0.0012500
        k(   11) = (   0.0000000   0.2500000   0.0000000), wk =   0.0012500
        k(   12) = (   0.0000000   0.2750000   0.0000000), wk =   0.0012500
        k(   13) = (   0.0000000   0.3000000   0.0000000), wk =   0.0012500
        k(   14) = (   0.0000000   0.3250000   0.0000000), wk =   0.0012500
        k(   15) = (   0.0000000   0.3500000   0.0000000), wk =   0.0012500
        k(   16) = (   0.0000000   0.3750000   0.0000000), wk =   0.0012500
        k(   17) = (   0.0000000   0.4000000   0.0000000), wk =   0.0012500
        k(   18) = (   0.0000000   0.4250000   0.0000000), wk =   0.0012500
        k(   19) = (   0.0000000   0.4500000   0.0000000), wk =   0.0012500
        k(   20) = (   0.0000000   0.4750000   0.0000000), wk =   0.0012500
        k(   21) = (   0.0000000  -0.5000000   0.0000000), wk =   0.0012500
        k(   22) = (   0.0000000  -0.4750000   0.0000000), wk =   0.0012500
        k(   23) = (   0.0000000  -0.4500000   0.0000000), wk =   0.0012500
        k(   24) = (   0.0000000  -0.4250000   0.0000000), wk =   0.0012500
        k(   25) = (   0.0000000  -0.4000000   0.0000000), wk =   0.0012500
        k(   26) = (   0.0000000  -0.3750000   0.0000000), wk =   0.0012500
        k(   27) = (   0.0000000  -0.3500000   0.0000000), wk =   0.0012500
        k(   28) = (   0.0000000  -0.3250000   0.0000000), wk =   0.0012500
        k(   29) = (   0.0000000  -0.3000000   0.0000000), wk =   0.0012500
        k(   30) = (   0.0000000  -0.2750000   0.0000000), wk =   0.0012500
        k(   31) = (   0.0000000  -0.2500000   0.0000000), wk =   0.0012500
        k(   32) = (   0.0000000  -0.2250000   0.0000000), wk =   0.0012500
        k(   33) = (   0.0000000  -0.2000000   0.0000000), wk =   0.0012500
        k(   34) = (   0.0000000  -0.1750000   0.0000000), wk =   0.0012500
        k(   35) = (   0.0000000  -0.1500000   0.0000000), wk =   0.0012500
        k(   36) = (   0.0000000  -0.1250000   0.0000000), wk =   0.0012500
        k(   37) = (   0.0000000  -0.1000000   0.0000000), wk =   0.0012500
        k(   38) = (   0.0000000  -0.0750000   0.0000000), wk =   0.0012500
        k(   39) = (   0.0000000  -0.0500000   0.0000000), wk =   0.0012500
        k(   40) = (   0.0000000  -0.0250000   0.0000000), wk =   0.0012500
        k(   41) = (   0.0250000   0.0000000   0.0000000), wk =   0.0012500
        k(   42) = (   0.0250000   0.0250000   0.0000000), wk =   0.0012500
        k(   43) = (   0.0250000   0.0500000   0.0000000), wk =   0.0012500
        k(   44) = (   0.0250000   0.0750000   0.0000000), wk =   0.0012500
        k(   45) = (   0.0250000   0.1000000   0.0000000), wk =   0.0012500
        k(   46) = (   0.0250000   0.1250000   0.0000000), wk =   0.0012500
        k(   47) = (   0.0250000   0.1500000   0.0000000), wk =   0.0012500
        k(   48) = (   0.0250000   0.1750000   0.0000000), wk =   0.0012500
        k(   49) = (   0.0250000   0.2000000   0.0000000), wk =   0.0012500
        k(   50) = (   0.0250000   0.2250000   0.0000000), wk =   0.0012500
        k(   51) = (   0.0250000   0.2500000   0.0000000), wk =   0.0012500
        k(   52) = (   0.0250000   0.2750000   0.0000000), wk =   0.0012500
        k(   53) = (   0.0250000   0.3000000   0.0000000), wk =   0.0012500
        k(   54) = (   0.0250000   0.3250000   0.0000000), wk =   0.0012500
        k(   55) = (   0.0250000   0.3500000   0.0000000), wk =   0.0012500
        k(   56) = (   0.0250000   0.3750000   0.0000000), wk =   0.0012500
        k(   57) = (   0.0250000   0.4000000   0.0000000), wk =   0.0012500
        k(   58) = (   0.0250000   0.4250000   0.0000000), wk =   0.0012500
        k(   59) = (   0.0250000   0.4500000   0.0000000), wk =   0.0012500
        k(   60) = (   0.0250000   0.4750000   0.0000000), wk =   0.0012500
[...]
        k( 1586) = (  -0.0250000  -0.3750000   0.0000000), wk =   0.0012500
        k( 1587) = (  -0.0250000  -0.3500000   0.0000000), wk =   0.0012500
        k( 1588) = (  -0.0250000  -0.3250000   0.0000000), wk =   0.0012500
        k( 1589) = (  -0.0250000  -0.3000000   0.0000000), wk =   0.0012500
        k( 1590) = (  -0.0250000  -0.2750000   0.0000000), wk =   0.0012500
        k( 1591) = (  -0.0250000  -0.2500000   0.0000000), wk =   0.0012500
        k( 1592) = (  -0.0250000  -0.2250000   0.0000000), wk =   0.0012500
        k( 1593) = (  -0.0250000  -0.2000000   0.0000000), wk =   0.0012500
        k( 1594) = (  -0.0250000  -0.1750000   0.0000000), wk =   0.0012500
        k( 1595) = (  -0.0250000  -0.1500000   0.0000000), wk =   0.0012500
        k( 1596) = (  -0.0250000  -0.1250000   0.0000000), wk =   0.0012500
        k( 1597) = (  -0.0250000  -0.1000000   0.0000000), wk =   0.0012500
        k( 1598) = (  -0.0250000  -0.0750000   0.0000000), wk =   0.0012500
        k( 1599) = (  -0.0250000  -0.0500000   0.0000000), wk =   0.0012500
        k( 1600) = (  -0.0250000  -0.0250000   0.0000000), wk =   0.0012500

     Check: negative core charge=   -0.000016

     Initial potential from superposition of free atoms

     starting charge   29.99873, renormalised to   30.00000

     negative rho (up, down):  8.719E-05 0.000E+00
     Starting wfcs are   18 randomized atomic wfcs +   62 random wfcs
     Checking if some PAW data can be deallocated...

     Self-consistent Calculation

     iteration #  1     ecut=    50.00 Ry     beta= 0.70
     Davidson diagonalization with overlap
     ethr =  1.00E-02,  avg # of iterations =  6.2

     Threshold (ethr) on eigenvalues was too large:
     Diagonalizing with lowered threshold

     Davidson diagonalization with overlap
     ethr =  8.74E-05,  avg # of iterations =  6.4

     negative rho (up, down):  8.293E-05 0.000E+00

     total energy              =    -932.28262737 Ry
     Harris-Foulkes estimate   =    -932.29815433 Ry
     estimated scf accuracy    <       0.02620781 Ry

[...]

     total energy              =    -932.29049570 Ry
     Harris-Foulkes estimate   =    -932.29049570 Ry
     estimated scf accuracy    <       0.00000001 Ry

     iteration #  8     ecut=    50.00 Ry     beta= 0.70
     Davidson diagonalization with overlap
     ethr =  4.67E-11,  avg # of iterations =  2.1

[...]

     End of self-consistent calculation

          k = 0.0000 0.0000 0.0000 (  7103 PWs)   bands (ev):

   -36.3090 -36.3090 -36.2939 -36.2939 -36.2872 -21.0377 -21.0377 -20.9766
   -20.9766 -20.9639 -12.1163  -6.2795  -0.9717  -0.3481  -0.3481   1.8494
     3.4706   3.4706   4.2469   4.7103   6.8180   7.7180   8.3751   8.4592
     8.4592   9.7718  10.2156  10.2156  10.2695  13.0488  13.1338  13.1338
    14.1539  14.1539  14.4705  15.1202  15.3268  16.0748  16.0748  16.7572
    16.7746  16.7746  16.8866  16.8866  17.0155  17.0155  17.0184  17.2951
    17.4892  19.9631  20.1505  20.1505  20.3478  20.3478  20.9233  20.9234
    20.9917  20.9917  20.9952  21.4912  21.8842  23.2722  23.3723  25.6074
    26.1227  26.1227  26.3601  26.3601  26.9302  27.0960  27.2027  27.2027
    27.3960  27.3960  27.9848  27.9848  28.1308  28.4402  28.7096  28.7096

     occupation numbers
     1.0000   1.0000   1.0000   1.0000   1.0000   1.0000   1.0000   1.0000
     1.0000   1.0000   1.0000   1.0000   1.0000   1.0000   1.0000   0.0000
     0.0000   0.0000   0.0000   0.0000   0.0000   0.0000   0.0000   0.0000
     0.0000   0.0000   0.0000   0.0000   0.0000   0.0000   0.0000   0.0000
     0.0000   0.0000   0.0000   0.0000   0.0000   0.0000   0.0000   0.0000
     0.0000   0.0000   0.0000   0.0000   0.0000   0.0000   0.0000   0.0000
     0.0000   0.0000   0.0000   0.0000   0.0000   0.0000   0.0000   0.0000
     0.0000   0.0000   0.0000   0.0000   0.0000   0.0000   0.0000   0.0000
     0.0000   0.0000   0.0000   0.0000   0.0000   0.0000   0.0000   0.0000
     0.0000   0.0000   0.0000   0.0000   0.0000   0.0000   0.0000   0.0000

[...]

          k = 0.4900-0.3127 0.0000 (  7110 PWs)   bands (ev):

[...]

          k =-0.5158 0.2978 0.0000 (  7106 PWs)   bands (ev):

[...]

          k =-0.0258-0.0149 0.0000 (  7121 PWs)   bands (ev):

   -36.3090 -36.3090 -36.2939 -36.2939 -36.2872 -21.0377 -21.0375 -20.9767
   -20.9766 -20.9638 -12.1104  -6.2772  -0.9718  -0.4108  -0.3607   1.9019
     3.4413   3.4814   4.2564   4.7217   6.8360   7.6988   8.3723   8.4485
     8.4545   9.6666  10.1982  10.2538  10.4710  12.7883  13.0766  13.3578
    14.0796  14.2224  14.4782  15.2310  15.3705  15.8676  15.9824  16.3073
    16.6125  16.6535  16.7888  16.9444  17.1677  17.2455  17.2504  17.6266
    17.7390  19.6871  19.9299  20.0447  20.2635  20.4471  20.7731  20.9793
    21.0035  21.1327  21.1992  21.7389  22.0504  23.2795  23.3806  25.4669
    25.9138  26.0489  26.1598  26.3211  26.8780  27.0067  27.2090  27.3749
    27.4383  27.4525  27.7541  27.8802  28.3203  28.5422  28.9555  29.0459

     occupation numbers
     1.0000   1.0000   1.0000   1.0000   1.0000   1.0000   1.0000   1.0000
     1.0000   1.0000   1.0000   1.0000   1.0000   1.0000   1.0000   0.0000
     0.0000   0.0000   0.0000   0.0000   0.0000   0.0000   0.0000   0.0000
     0.0000   0.0000   0.0000   0.0000   0.0000   0.0000   0.0000   0.0000
     0.0000   0.0000   0.0000   0.0000   0.0000   0.0000   0.0000   0.0000
     0.0000   0.0000   0.0000   0.0000   0.0000   0.0000   0.0000   0.0000
     0.0000   0.0000   0.0000   0.0000   0.0000   0.0000   0.0000   0.0000
     0.0000   0.0000   0.0000   0.0000   0.0000   0.0000   0.0000   0.0000
     0.0000   0.0000   0.0000   0.0000   0.0000   0.0000   0.0000   0.0000
     0.0000   0.0000   0.0000   0.0000   0.0000   0.0000   0.0000   0.0000

     the Fermi energy is     0.4775 ev

!    total energy              =    -932.29049571 Ry
     Harris-Foulkes estimate   =    -932.29049571 Ry
     estimated scf accuracy    <          1.3E-09 Ry

     total all-electron energy =    -25922.033918 Ry

     The total energy is the sum of the following terms:

     one-electron contribution =    -627.41464650 Ry
     hartree contribution      =     318.51751388 Ry
     xc contribution           =     -72.25977887 Ry
     ewald contribution        =      29.89390689 Ry
     one-center paw contrib.   =    -581.02749110 Ry
      -> PAW hartree energy AE =     113.88984956 Ry
      -> PAW hartree energy PS =    -104.22723594 Ry
      -> PAW xc energy AE      =    -318.52813981 Ry
      -> PAW xc energy PS      =      26.50699390 Ry
      -> total E_H with PAW    =     328.18012750 Ry
      -> total E_XC with PAW   =    -364.28092479 Ry
     smearing contrib. (-TS)   =      -0.00000000 Ry

     convergence has been achieved in   8 iterations

     negative rho (up, down):  6.328E-05 0.000E+00

     Forces acting on atoms (cartesian axes, Ry/au):

     atom    1 type  1   force =    -0.00000438    0.00000185    0.00045518
     atom    2 type  2   force =     0.00000438   -0.00000185   -0.00045518
     The non-local contrib.  to forces
     atom    1 type  1   force =     0.00000183    0.00000019   -0.54798786
     atom    2 type  2   force =     0.00001338   -0.00000693    0.33708104
     The ionic contribution  to forces
     atom    1 type  1   force =    -0.00000002    0.00000001   33.97115893
     atom    2 type  2   force =     0.00000002   -0.00000001  -33.97115893
     The local contribution  to forces
     atom    1 type  1   force =    -0.00000183    0.00000002  -33.43524476
     atom    2 type  2   force =     0.00000173    0.00000111   33.63448465
     The core correction contribution to forces
     atom    1 type  1   force =    -0.00000006    0.00000000    0.01251098
     atom    2 type  2   force =    -0.00000011    0.00000002   -0.00079199
     The Hubbard contrib.    to forces
     atom    1 type  1   force =     0.00000000    0.00000000    0.00000000
     atom    2 type  2   force =     0.00000000    0.00000000    0.00000000
     The SCF correction term to forces
     atom    1 type  1   force =     0.00000151   -0.00000060   -0.00002259
     atom    2 type  2   force =    -0.00000483    0.00000173   -0.00011042

     Total force =     0.000644     Total SCF correction =     0.000113
     SCF correction compared to forces is large: reduce conv_thr to get better values

     Computing stress (Cartesian axis) and pressure

     negative rho (up, down):  6.328E-05 0.000E+00
          total   stress  (Ry/bohr**3)                   (kbar)     P=   -0.23
  -0.00000134   0.00000000   0.00000000         -0.20      0.00      0.00
   0.00000000  -0.00000135   0.00000000          0.00     -0.20      0.00
   0.00000000   0.00000000  -0.00000200          0.00      0.00     -0.29

     kinetic stress (kbar)   3399.52     -0.00     -0.00
                               -0.00   3399.52     -0.00
                               -0.00     -0.00   3420.74

     local   stress (kbar) -54956.93      0.00     -0.00
                                0.00 -54956.93     -0.00
                               -0.00     -0.00  58517.55

     nonloc. stress (kbar)   1232.02      0.00      0.00
                                0.00   1232.02      0.00
                                0.00      0.00   1247.13

     hartree stress (kbar)  31276.34     -0.00      0.00
                               -0.00  31276.34      0.00
                                0.00      0.00 -23209.43

     exc-cor stress (kbar)   2217.59      0.00      0.00
                                0.00   2217.59      0.00
                                0.00      0.00   2217.59

     corecor stress (kbar)  -4074.47     -0.00     -0.00
                               -0.00  -4074.47     -0.00
                               -0.00     -0.00  -4074.93

     ewald   stress (kbar)  20905.72      0.00     -0.00
                                0.00  20905.72      0.00
                               -0.00      0.00 -38118.95

     hubbard stress (kbar)      0.00      0.00      0.00
                                0.00      0.00      0.00
                                0.00      0.00      0.00

     london  stress (kbar)      0.00      0.00      0.00
                                0.00      0.00      0.00
                                0.00      0.00      0.00

     DFT-D3  stress (kbar)      0.00      0.00      0.00
                                0.00      0.00      0.00
                                0.00      0.00      0.00

     XDM     stress (kbar)      0.00      0.00      0.00
                                0.00      0.00      0.00
                                0.00      0.00      0.00

     dft-nl  stress (kbar)      0.00      0.00      0.00
                                0.00      0.00      0.00
                                0.00      0.00      0.00

     TS-vdW  stress (kbar)      0.00      0.00      0.00
                                0.00      0.00      0.00
                                0.00      0.00      0.00

     Writing output data file snte.save/

     General routines

     Parallel routines

     PAW routines

   This run was terminated on:  10: 3: 1  16Oct2023

   JOB DONE.