     Program PWSCF v.6.4.1 starts on 16Oct2023 at  8:14: 5

     R & G space division:  proc/nbgrp/npool/nimage =       4
     Waiting for input...
     Reading input from standard input
Warning: card &IONS ignored
Warning: card / ignored
Warning: card &CELL ignored
Warning: card / ignored

     Current dimensions of program PWSCF are:
     Max number of different atomic species (ntypx) = 10
     Max number of k-points (npk) =  40000
     Max angular momentum in pseudopotentials (lmaxx) =  3
               file Sn.pz-dn-kjpaw_psl.0.2.UPF: wavefunction(s)  5P 4D renormalized
               file Te.pz-dn-kjpaw_psl.0.2.2.UPF: wavefunction(s)  5S 5P 4D renormalized

     Subspace diagonalization in iterative solution of the eigenvalue problem:
     a serial algorithm will be used

     Title:
      PbTe_PZ

     bravais-lattice index     =            0
     lattice parameter (alat)  =       7.3000  a.u.
     unit-cell volume          =    1249.7667 (a.u.)^3
     number of atoms/cell      =            2
     number of atomic types    =            2
     number of electrons       =        30.00
     number of Kohn-Sham states=           40
     kinetic-energy cutoff     =      50.0000  Ry
     charge density cutoff     =     400.0000  Ry
     convergence threshold     =      1.0E-08
     mixing beta               =       0.7000
     number of iterations used =            8  plain     mixing
     Exchange-correlation      = SLA PZ NOGX NOGC ( 1  1  0  0 0 0)

     celldm(1)=   7.300000  celldm(2)=   0.000000  celldm(3)=   0.000000
     celldm(4)=   0.000000  celldm(5)=   0.000000  celldm(6)=   0.000000

     crystal axes: (cart. coord. in units of alat)
               a(1) = (   0.975125   0.000057   0.000000 )
               a(2) = (   0.000057   0.975105   0.000000 )
               a(3) = (   0.000000   0.000000   3.378690 )

     reciprocal axes: (cart. coord. in units 2 pi/alat)
               b(1) = (  1.025509 -0.000060  0.000000 )
               b(2) = ( -0.000060  1.025530  0.000000 )
               b(3) = (  0.000000  0.000000  0.295973 )

     PseudoPot. # 1 for Sn read from file:
     /home/raagya/pseudo/Sn.pz-dn-kjpaw_psl.0.2.UPF
     MD5 check sum: 4ae5dc40354335ee230663518864dfb4
     Pseudo is Projector augmented-wave + core cor, Zval = 14.0
     Generated using "atomic" code by A. Dal Corso v.5.0.2 svn rev. 9415
     Shape of augmentation charge: BESSEL
     Using radial grid of 1243 points,  6 beta functions with:
                l(1) =   0
                l(2) =   0
                l(3) =   1
                l(4) =   1
                l(5) =   2
                l(6) =   2
     Q(r) pseudized with 0 coefficients

     PseudoPot. # 2 for Te read from file:
     /home/raagya/pseudo/Te.pz-dn-kjpaw_psl.0.2.2.UPF
     MD5 check sum: 848335cf92ad1717ddde3348b6640de7
     Pseudo is Projector augmented-wave + core cor, Zval = 16.0
     Generated using "atomic" code by A. Dal Corso v.5.0.2 svn rev. 9415
     Shape of augmentation charge: PSQ
     Using radial grid of 1245 points,  6 beta functions with:
                l(1) =   0
                l(2) =   0
                l(3) =   1
                l(4) =   1
                l(5) =   2
                l(6) =   2
     Q(r) pseudized with 0 coefficients

     atomic species   valence    mass     pseudopotential
        Sn            14.00   118.71000     Sn( 1.00)
        Te            16.00   127.60000     Te( 1.00)

     No symmetry found

                                    s                        frac. trans.

      isym =  1     identity

 cryst.   s( 1) = (     1          0          0      )
                  (     0          1          0      )
                  (     0          0          1      )

 cart.    s( 1) = (  1.0000000  0.0000000  0.0000000 )
                  (  0.0000000  1.0000000  0.0000000 )
                  (  0.0000000  0.0000000  1.0000000 )

   Cartesian axes

     site n.     atom                  positions (alat units)
         1           Sn  tau(   1) = (   0.0009441   0.0019890   0.2004867  )
         2           Te  tau(   2) = (   0.4885264   0.4895129  -0.1666998  )

   Crystallographic axes

     site n.     atom                  positions (cryst. coord.)
         1           Sn  tau(   1) = (  0.0009681  0.0020397  0.0593386  )
         2           Te  tau(   2) = (  0.5009588  0.5019808 -0.0493386  )

     number of k points=  1600  Fermi-Dirac smearing, width (Ry)=  0.0030
                       cart. coord. in units 2pi/alat
        k(    1) = (   0.0000000   0.0000000   0.0000000), wk =   0.0012500
        k(    2) = (  -0.0000015   0.0256383   0.0000000), wk =   0.0012500
        k(    3) = (  -0.0000030   0.0512765   0.0000000), wk =   0.0012500
        k(    4) = (  -0.0000045   0.0769148   0.0000000), wk =   0.0012500
        k(    5) = (  -0.0000060   0.1025530   0.0000000), wk =   0.0012500
        k(    6) = (  -0.0000075   0.1281913   0.0000000), wk =   0.0012500
        k(    7) = (  -0.0000090   0.1538295   0.0000000), wk =   0.0012500
        k(    8) = (  -0.0000105   0.1794678   0.0000000), wk =   0.0012500
        k(    9) = (  -0.0000121   0.2051061   0.0000000), wk =   0.0012500
        k(   10) = (  -0.0000136   0.2307443   0.0000000), wk =   0.0012500
        k(   11) = (  -0.0000151   0.2563826   0.0000000), wk =   0.0012500
        k(   12) = (  -0.0000166   0.2820208   0.0000000), wk =   0.0012500
        k(   13) = (  -0.0000181   0.3076591   0.0000000), wk =   0.0012500
        k(   14) = (  -0.0000196   0.3332973   0.0000000), wk =   0.0012500
        k(   15) = (  -0.0000211   0.3589356   0.0000000), wk =   0.0012500
        k(   16) = (  -0.0000226   0.3845738   0.0000000), wk =   0.0012500
        k(   17) = (  -0.0000241   0.4102121   0.0000000), wk =   0.0012500
        k(   18) = (  -0.0000256   0.4358504   0.0000000), wk =   0.0012500
        k(   19) = (  -0.0000271   0.4614886   0.0000000), wk =   0.0012500
        k(   20) = (  -0.0000286   0.4871269   0.0000000), wk =   0.0012500
        k(   21) = (   0.0000301  -0.5127651   0.0000000), wk =   0.0012500
        k(   22) = (   0.0000286  -0.4871269   0.0000000), wk =   0.0012500
        k(   23) = (   0.0000271  -0.4614886   0.0000000), wk =   0.0012500
        k(   24) = (   0.0000256  -0.4358504   0.0000000), wk =   0.0012500
        k(   25) = (   0.0000241  -0.4102121   0.0000000), wk =   0.0012500
        k(   26) = (   0.0000226  -0.3845738   0.0000000), wk =   0.0012500
        k(   27) = (   0.0000211  -0.3589356   0.0000000), wk =   0.0012500
        k(   28) = (   0.0000196  -0.3332973   0.0000000), wk =   0.0012500
        k(   29) = (   0.0000181  -0.3076591   0.0000000), wk =   0.0012500
        k(   30) = (   0.0000166  -0.2820208   0.0000000), wk =   0.0012500
        k(   31) = (   0.0000151  -0.2563826   0.0000000), wk =   0.0012500
        k(   32) = (   0.0000136  -0.2307443   0.0000000), wk =   0.0012500
        k(   33) = (   0.0000121  -0.2051061   0.0000000), wk =   0.0012500
        k(   34) = (   0.0000105  -0.1794678   0.0000000), wk =   0.0012500
        k(   35) = (   0.0000090  -0.1538295   0.0000000), wk =   0.0012500
        k(   36) = (   0.0000075  -0.1281913   0.0000000), wk =   0.0012500
        k(   37) = (   0.0000060  -0.1025530   0.0000000), wk =   0.0012500
        k(   38) = (   0.0000045  -0.0769148   0.0000000), wk =   0.0012500
        k(   39) = (   0.0000030  -0.0512765   0.0000000), wk =   0.0012500
        k(   40) = (   0.0000015  -0.0256383   0.0000000), wk =   0.0012500
        k(   41) = (   0.0256377  -0.0000015   0.0000000), wk =   0.0012500
        k(   42) = (   0.0256362   0.0256367   0.0000000), wk =   0.0012500
        k(   43) = (   0.0256347   0.0512750   0.0000000), wk =   0.0012500
        k(   44) = (   0.0256332   0.0769133   0.0000000), wk =   0.0012500
        k(   45) = (   0.0256317   0.1025515   0.0000000), wk =   0.0012500
        k(   46) = (   0.0256302   0.1281898   0.0000000), wk =   0.0012500
        k(   47) = (   0.0256287   0.1538280   0.0000000), wk =   0.0012500
        k(   48) = (   0.0256272   0.1794663   0.0000000), wk =   0.0012500
        k(   49) = (   0.0256257   0.2051045   0.0000000), wk =   0.0012500
        k(   50) = (   0.0256242   0.2307428   0.0000000), wk =   0.0012500
        k(   51) = (   0.0256227   0.2563811   0.0000000), wk =   0.0012500
        k(   52) = (   0.0256211   0.2820193   0.0000000), wk =   0.0012500
        k(   53) = (   0.0256196   0.3076576   0.0000000), wk =   0.0012500
        k(   54) = (   0.0256181   0.3332958   0.0000000), wk =   0.0012500
        k(   55) = (   0.0256166   0.3589341   0.0000000), wk =   0.0012500
        k(   56) = (   0.0256151   0.3845723   0.0000000), wk =   0.0012500
        k(   57) = (   0.0256136   0.4102106   0.0000000), wk =   0.0012500
        k(   58) = (   0.0256121   0.4358489   0.0000000), wk =   0.0012500
        k(   59) = (   0.0256106   0.4614871   0.0000000), wk =   0.0012500
        k(   60) = (   0.0256091   0.4871254   0.0000000), wk =   0.0012500
[...]
        k( 1586) = (  -0.0256151  -0.3845723   0.0000000), wk =   0.0012500
        k( 1587) = (  -0.0256166  -0.3589341   0.0000000), wk =   0.0012500
        k( 1588) = (  -0.0256181  -0.3332958   0.0000000), wk =   0.0012500
        k( 1589) = (  -0.0256196  -0.3076576   0.0000000), wk =   0.0012500
        k( 1590) = (  -0.0256211  -0.2820193   0.0000000), wk =   0.0012500
        k( 1591) = (  -0.0256227  -0.2563811   0.0000000), wk =   0.0012500
        k( 1592) = (  -0.0256242  -0.2307428   0.0000000), wk =   0.0012500
        k( 1593) = (  -0.0256257  -0.2051045   0.0000000), wk =   0.0012500
        k( 1594) = (  -0.0256272  -0.1794663   0.0000000), wk =   0.0012500
        k( 1595) = (  -0.0256287  -0.1538280   0.0000000), wk =   0.0012500
        k( 1596) = (  -0.0256302  -0.1281898   0.0000000), wk =   0.0012500
        k( 1597) = (  -0.0256317  -0.1025515   0.0000000), wk =   0.0012500
        k( 1598) = (  -0.0256332  -0.0769133   0.0000000), wk =   0.0012500
        k( 1599) = (  -0.0256347  -0.0512750   0.0000000), wk =   0.0012500
        k( 1600) = (  -0.0256362  -0.0256367   0.0000000), wk =   0.0012500

                       cryst. coord.
        k(    1) = (   0.0000000   0.0000000   0.0000000), wk =   0.0012500
        k(    2) = (   0.0000000   0.0250000   0.0000000), wk =   0.0012500
        k(    3) = (   0.0000000   0.0500000   0.0000000), wk =   0.0012500
        k(    4) = (   0.0000000   0.0750000   0.0000000), wk =   0.0012500
        k(    5) = (   0.0000000   0.1000000   0.0000000), wk =   0.0012500
        k(    6) = (   0.0000000   0.1250000   0.0000000), wk =   0.0012500
        k(    7) = (   0.0000000   0.1500000   0.0000000), wk =   0.0012500
        k(    8) = (   0.0000000   0.1750000   0.0000000), wk =   0.0012500
        k(    9) = (   0.0000000   0.2000000   0.0000000), wk =   0.0012500
        k(   10) = (   0.0000000   0.2250000   0.0000000), wk =   0.0012500
        k(   11) = (   0.0000000   0.2500000   0.0000000), wk =   0.0012500
        k(   12) = (   0.0000000   0.2750000   0.0000000), wk =   0.0012500
        k(   13) = (   0.0000000   0.3000000   0.0000000), wk =   0.0012500
        k(   14) = (   0.0000000   0.3250000   0.0000000), wk =   0.0012500
        k(   15) = (   0.0000000   0.3500000   0.0000000), wk =   0.0012500
        k(   16) = (   0.0000000   0.3750000   0.0000000), wk =   0.0012500
        k(   17) = (   0.0000000   0.4000000   0.0000000), wk =   0.0012500
        k(   18) = (   0.0000000   0.4250000   0.0000000), wk =   0.0012500
        k(   19) = (   0.0000000   0.4500000   0.0000000), wk =   0.0012500
        k(   20) = (   0.0000000   0.4750000   0.0000000), wk =   0.0012500
        k(   21) = (   0.0000000  -0.5000000   0.0000000), wk =   0.0012500
        k(   22) = (   0.0000000  -0.4750000   0.0000000), wk =   0.0012500
        k(   23) = (  -0.0000000  -0.4500000   0.0000000), wk =   0.0012500
        k(   24) = (   0.0000000  -0.4250000   0.0000000), wk =   0.0012500
        k(   25) = (   0.0000000  -0.4000000   0.0000000), wk =   0.0012500
        k(   26) = (   0.0000000  -0.3750000   0.0000000), wk =   0.0012500
        k(   27) = (   0.0000000  -0.3500000   0.0000000), wk =   0.0012500
        k(   28) = (  -0.0000000  -0.3250000   0.0000000), wk =   0.0012500
        k(   29) = (   0.0000000  -0.3000000   0.0000000), wk =   0.0012500
        k(   30) = (   0.0000000  -0.2750000   0.0000000), wk =   0.0012500
        k(   31) = (   0.0000000  -0.2500000   0.0000000), wk =   0.0012500
        k(   32) = (  -0.0000000  -0.2250000   0.0000000), wk =   0.0012500
        k(   33) = (  -0.0000000  -0.2000000   0.0000000), wk =   0.0012500
        k(   34) = (   0.0000000  -0.1750000   0.0000000), wk =   0.0012500
        k(   35) = (   0.0000000  -0.1500000   0.0000000), wk =   0.0012500
        k(   36) = (   0.0000000  -0.1250000   0.0000000), wk =   0.0012500
        k(   37) = (  -0.0000000  -0.1000000   0.0000000), wk =   0.0012500
        k(   38) = (   0.0000000  -0.0750000   0.0000000), wk =   0.0012500
        k(   39) = (   0.0000000  -0.0500000   0.0000000), wk =   0.0012500
        k(   40) = (   0.0000000  -0.0250000   0.0000000), wk =   0.0012500
        k(   41) = (   0.0250000   0.0000000   0.0000000), wk =   0.0012500
        k(   42) = (   0.0250000   0.0250000   0.0000000), wk =   0.0012500
        k(   43) = (   0.0250000   0.0500000   0.0000000), wk =   0.0012500
        k(   44) = (   0.0250000   0.0750000   0.0000000), wk =   0.0012500
        k(   45) = (   0.0250000   0.1000000   0.0000000), wk =   0.0012500
        k(   46) = (   0.0250000   0.1250000   0.0000000), wk =   0.0012500
        k(   47) = (   0.0250000   0.1500000   0.0000000), wk =   0.0012500
        k(   48) = (   0.0250000   0.1750000   0.0000000), wk =   0.0012500
        k(   49) = (   0.0250000   0.2000000   0.0000000), wk =   0.0012500
        k(   50) = (   0.0250000   0.2250000   0.0000000), wk =   0.0012500
        k(   51) = (   0.0250000   0.2500000   0.0000000), wk =   0.0012500
        k(   52) = (   0.0250000   0.2750000   0.0000000), wk =   0.0012500
        k(   53) = (   0.0250000   0.3000000   0.0000000), wk =   0.0012500
        k(   54) = (   0.0250000   0.3250000   0.0000000), wk =   0.0012500
        k(   55) = (   0.0250000   0.3500000   0.0000000), wk =   0.0012500
        k(   56) = (   0.0250000   0.3750000   0.0000000), wk =   0.0012500
        k(   57) = (   0.0250000   0.4000000   0.0000000), wk =   0.0012500
        k(   58) = (   0.0250000   0.4250000   0.0000000), wk =   0.0012500
        k(   59) = (   0.0250000   0.4500000   0.0000000), wk =   0.0012500
        k(   60) = (   0.0250000   0.4750000   0.0000000), wk =   0.0012500
[...]
        k( 1586) = (  -0.0250000  -0.3750000   0.0000000), wk =   0.0012500
        k( 1587) = (  -0.0250000  -0.3500000   0.0000000), wk =   0.0012500
        k( 1588) = (  -0.0250000  -0.3250000   0.0000000), wk =   0.0012500
        k( 1589) = (  -0.0250000  -0.3000000   0.0000000), wk =   0.0012500
        k( 1590) = (  -0.0250000  -0.2750000   0.0000000), wk =   0.0012500
        k( 1591) = (  -0.0250000  -0.2500000   0.0000000), wk =   0.0012500
        k( 1592) = (  -0.0250000  -0.2250000   0.0000000), wk =   0.0012500
        k( 1593) = (  -0.0250000  -0.2000000   0.0000000), wk =   0.0012500
        k( 1594) = (  -0.0250000  -0.1750000   0.0000000), wk =   0.0012500
        k( 1595) = (  -0.0250000  -0.1500000   0.0000000), wk =   0.0012500
        k( 1596) = (  -0.0250000  -0.1250000   0.0000000), wk =   0.0012500
        k( 1597) = (  -0.0250000  -0.1000000   0.0000000), wk =   0.0012500
        k( 1598) = (  -0.0250000  -0.0750000   0.0000000), wk =   0.0012500
        k( 1599) = (  -0.0250000  -0.0500000   0.0000000), wk =   0.0012500
        k( 1600) = (  -0.0250000  -0.0250000   0.0000000), wk =   0.0012500

     Check: negative core charge=   -0.000015

     Initial potential from superposition of free atoms

     starting charge   29.99873, renormalised to   30.00000

     negative rho (up, down):  1.363E-04 0.000E+00
     Starting wfcs are   18 randomized atomic wfcs +   22 random wfcs
     Checking if some PAW data can be deallocated...

     Self-consistent Calculation

     iteration #  1     ecut=    50.00 Ry     beta= 0.70
     Davidson diagonalization with overlap
     ethr =  1.00E-02,  avg # of iterations =  6.0

     Threshold (ethr) on eigenvalues was too large:
     Diagonalizing with lowered threshold

     Davidson diagonalization with overlap
     ethr =  1.48E-04,  avg # of iterations =  6.3

     negative rho (up, down):  1.308E-04 0.000E+00

     total energy              =    -932.24806199 Ry
     Harris-Foulkes estimate   =    -932.27983532 Ry
     estimated scf accuracy    <       0.04437051 Ry

[...]

     total energy              =    -932.26848340 Ry
     Harris-Foulkes estimate   =    -932.26848340 Ry
     estimated scf accuracy    <       0.00000002 Ry

     iteration #  8     ecut=    50.00 Ry     beta= 0.70
     Davidson diagonalization with overlap
     ethr =  7.15E-11,  avg # of iterations =  3.0

[...]

     End of self-consistent calculation

          k = 0.0000 0.0000 0.0000 (  7435 PWs)   bands (ev):

   -36.4221 -36.4180 -36.3775 -36.3775 -36.3655 -21.4638 -21.4347 -21.4208
   -21.4207 -21.4143 -12.3916  -6.4012  -1.2299  -1.2287  -0.8540   0.3238
     3.9699   4.3956   4.4769   4.7796   4.7801   6.1008   8.0014   8.9227
     9.1486   9.8541  11.6882  11.6901  12.2167  12.2177  12.4859  12.7637
    13.2186  14.0984  14.7684  14.7688  14.7813  14.9006  14.9226  14.9231

     occupation numbers
     1.0000   1.0000   1.0000   1.0000   1.0000   1.0000   1.0000   1.0000
     1.0000   1.0000   1.0000   1.0000   1.0000   1.0000   1.0000   0.0064
     0.0000   0.0000   0.0000   0.0000   0.0000   0.0000   0.0000   0.0000
     0.0000   0.0000   0.0000   0.0000   0.0000   0.0000   0.0000   0.0000
     0.0000   0.0000   0.0000   0.0000   0.0000   0.0000   0.0000   0.0000

          k =-0.0000 0.0256 0.0000 (  7388 PWs)   bands (ev):

[...]

          k = 0.4871-0.0257 0.0000 (  7448 PWs)   bands (ev):

[...]

          k =-0.0256-0.0256 0.0000 (  7385 PWs)   bands (ev):

   -36.4220 -36.4180 -36.3775 -36.3774 -36.3654 -21.4633 -21.4345 -21.4209
   -21.4208 -21.4145 -12.3804  -6.4022  -1.3714  -1.2695  -0.7917   0.4415
     3.9659   4.4048   4.5000   4.7105   4.7796   6.1613   8.0119   8.9525
     9.1951   9.7584  11.4061  11.6019  12.0855  12.1669  12.8284  13.0295
    13.2007  14.0649  14.4100  14.4290  14.5151  14.5157  15.1214  15.3618

     occupation numbers
     1.0000   1.0000   1.0000   1.0000   1.0000   1.0000   1.0000   1.0000
     1.0000   1.0000   1.0000   1.0000   1.0000   1.0000   1.0000   0.0004
     0.0000   0.0000   0.0000   0.0000   0.0000   0.0000   0.0000   0.0000
     0.0000   0.0000   0.0000   0.0000   0.0000   0.0000   0.0000   0.0000
     0.0000   0.0000   0.0000   0.0000   0.0000   0.0000   0.0000   0.0000

     the Fermi energy is     0.1179 ev

!    total energy              =    -932.26848341 Ry
     Harris-Foulkes estimate   =    -932.26848341 Ry
     estimated scf accuracy    <          1.2E-09 Ry

     total all-electron energy =    -25922.011906 Ry

     The total energy is the sum of the following terms:

     one-electron contribution =    -689.24445282 Ry
     hartree contribution      =     349.19562244 Ry
     xc contribution           =     -72.27133309 Ry
     ewald contribution        =      61.09992604 Ry
     one-center paw contrib.   =    -581.04794071 Ry
      -> PAW hartree energy AE =     112.93327180 Ry
      -> PAW hartree energy PS =    -103.29496627 Ry
      -> PAW xc energy AE      =    -318.46225146 Ry
      -> PAW xc energy PS      =      26.44468998 Ry
      -> total E_H with PAW    =     358.83392796 Ry
      -> total E_XC with PAW   =    -364.28889457 Ry
     smearing contrib. (-TS)   =      -0.00030527 Ry

     convergence has been achieved in   8 iterations

     negative rho (up, down):  1.049E-04 0.000E+00

     Forces acting on atoms (cartesian axes, Ry/au):

     atom    1 type  1   force =     0.00000677   -0.00000386    0.00047824
     atom    2 type  2   force =    -0.00000677    0.00000386   -0.00047824
     The non-local contrib.  to forces
     atom    1 type  1   force =     0.00001554    0.00007064   -0.44644662
     atom    2 type  2   force =    -0.00000548   -0.00003889    0.27458106
     The ionic contribution  to forces
     atom    1 type  1   force =    -0.00029750   -0.00187601   30.43104899
     atom    2 type  2   force =     0.00029750    0.00187601  -30.43104899
     The local contribution  to forces
     atom    1 type  1   force =     0.00027812    0.00179663  -29.99518091
     atom    2 type  2   force =    -0.00027707   -0.00182865   30.15721953
     The core correction contribution to forces
     atom    1 type  1   force =     0.00000002    0.00000028    0.01101942
     atom    2 type  2   force =    -0.00000606   -0.00001606   -0.00117258
     The Hubbard contrib.    to forces
     atom    1 type  1   force =     0.00000000    0.00000000    0.00000000
     atom    2 type  2   force =     0.00000000    0.00000000    0.00000000
     The SCF correction term to forces
     atom    1 type  1   force =     0.00000805    0.00000058    0.00001734
     atom    2 type  2   force =    -0.00001818    0.00000743   -0.00007728

     Total force =     0.000676     Total SCF correction =     0.000082
     SCF correction compared to forces is large: reduce conv_thr to get better values

     Computing stress (Cartesian axis) and pressure

     negative rho (up, down):  1.049E-04 0.000E+00
          total   stress  (Ry/bohr**3)                   (kbar)     P=   -0.05
   0.00000049  -0.00000007  -0.00000000          0.07     -0.01     -0.00
  -0.00000007   0.00000051  -0.00000002         -0.01      0.08     -0.00
  -0.00000000  -0.00000002  -0.00000194         -0.00     -0.00     -0.29

     kinetic stress (kbar)   3233.99      0.01      0.00
                                0.01   3233.99      0.01
                                0.00      0.01   3272.57

     local   stress (kbar) -61717.36      0.79      0.15
                                0.79 -61717.52      0.93
                                0.15      0.93  67180.98

     nonloc. stress (kbar)   1176.99     -0.00     -0.00
                               -0.00   1176.99     -0.01
                               -0.00     -0.01   1174.12

     hartree stress (kbar)  34233.98     -0.27     -0.05
                               -0.27  34234.05     -0.34
                               -0.05     -0.34 -27365.61

     exc-cor stress (kbar)   2112.98      0.00      0.00
                                0.00   2112.98      0.00
                                0.00      0.00   2112.98

     corecor stress (kbar)  -3882.73      0.00      0.00
                                0.00  -3882.73      0.00
                                0.00      0.00  -3882.61

     ewald   stress (kbar)  24842.22     -0.54     -0.09
                               -0.54  24842.32     -0.59
                               -0.09     -0.59 -42492.71

     hubbard stress (kbar)      0.00      0.00      0.00
                                0.00      0.00      0.00
                                0.00      0.00      0.00

     london  stress (kbar)      0.00      0.00      0.00
                                0.00      0.00      0.00
                                0.00      0.00      0.00

     DFT-D3  stress (kbar)      0.00      0.00      0.00
                                0.00      0.00      0.00
                                0.00      0.00      0.00

     XDM     stress (kbar)      0.00      0.00      0.00
                                0.00      0.00      0.00
                                0.00      0.00      0.00

     dft-nl  stress (kbar)      0.00      0.00      0.00
                                0.00      0.00      0.00
                                0.00      0.00      0.00

     TS-vdW  stress (kbar)      0.00      0.00      0.00
                                0.00      0.00      0.00
                                0.00      0.00      0.00

     Writing output data file snte.save/

     General routines

     Parallel routines

     PAW routines

   This run was terminated on:   9:27:31  16Oct2023

   JOB DONE.