     Program PWSCF v.6.4.1 starts on 16Oct2023 at  7:57:14

     R & G space division:  proc/nbgrp/npool/nimage =       4
     Waiting for input...
     Reading input from standard input
Warning: card &IONS ignored
Warning: card / ignored
Warning: card &CELL ignored
Warning: card / ignored

     Current dimensions of program PWSCF are:
     Max number of different atomic species (ntypx) = 10
     Max number of k-points (npk) =  40000
     Max angular momentum in pseudopotentials (lmaxx) =  3
               file Sn.pz-dn-kjpaw_psl.0.2.UPF: wavefunction(s)  5P 4D renormalized
               file Te.pz-dn-kjpaw_psl.0.2.2.UPF: wavefunction(s)  5S 5P 4D renormalized

     Subspace diagonalization in iterative solution of the eigenvalue problem:
     a serial algorithm will be used

     Title:
      PbTe_PZ

     bravais-lattice index     =            0
     lattice parameter (alat)  =       9.8060  a.u.
     unit-cell volume          =    2349.2426 (a.u.)^3
     number of atoms/cell      =            2
     number of atomic types    =            2
     number of electrons       =        30.00
     number of Kohn-Sham states=           40
     kinetic-energy cutoff     =      50.0000  Ry
     charge density cutoff     =     400.0000  Ry
     convergence threshold     =      1.0E-08
     mixing beta               =       0.7000
     number of iterations used =            8  plain     mixing
     Exchange-correlation      = SLA PZ NOGX NOGC ( 1  1  0  0 0 0)

     celldm(1)=   9.806000  celldm(2)=   0.000000  celldm(3)=   0.000000
     celldm(4)=   0.000000  celldm(5)=   0.000000  celldm(6)=   0.000000

     crystal axes: (cart. coord. in units of alat)
               a(1) = (   0.979265   0.000000   0.000000 )
               a(2) = (   0.489632   0.848068   0.000000 )
               a(3) = (   0.000000   0.000000   3.000000 )

     reciprocal axes: (cart. coord. in units 2 pi/alat)
               b(1) = (  1.021174 -0.589575  0.000000 )
               b(2) = (  0.000000  1.179150  0.000000 )
               b(3) = (  0.000000  0.000000  0.333333 )

     PseudoPot. # 1 for Sn read from file:
     /home/raagya/pseudo/Sn.pz-dn-kjpaw_psl.0.2.UPF
     MD5 check sum: 4ae5dc40354335ee230663518864dfb4
     Pseudo is Projector augmented-wave + core cor, Zval = 14.0
     Generated using "atomic" code by A. Dal Corso v.5.0.2 svn rev. 9415
     Shape of augmentation charge: BESSEL
     Using radial grid of 1243 points,  6 beta functions with:
                l(1) =   0
                l(2) =   0
                l(3) =   1
                l(4) =   1
                l(5) =   2
                l(6) =   2
     Q(r) pseudized with 0 coefficients

     PseudoPot. # 2 for Te read from file:
     /home/raagya/pseudo/Te.pz-dn-kjpaw_psl.0.2.2.UPF
     MD5 check sum: 848335cf92ad1717ddde3348b6640de7
     Pseudo is Projector augmented-wave + core cor, Zval = 16.0
     Generated using "atomic" code by A. Dal Corso v.5.0.2 svn rev. 9415
     Shape of augmentation charge: PSQ
     Using radial grid of 1245 points,  6 beta functions with:
                l(1) =   0
                l(2) =   0
                l(3) =   1
                l(4) =   1
                l(5) =   2
                l(6) =   2
     Q(r) pseudized with 0 coefficients

     atomic species   valence    mass     pseudopotential
        Sn            14.00   118.71000     Sn( 1.00)
        Te            16.00   127.60000     Te( 1.00)

     No symmetry found

                                    s                        frac. trans.

      isym =  1     identity

 cryst.   s( 1) = (     1          0          0      )
                  (     0          1          0      )
                  (     0          0          1      )

 cart.    s( 1) = (  1.0000000  0.0000000  0.0000000 )
                  (  0.0000000  1.0000000  0.0000000 )
                  (  0.0000000  0.0000000  1.0000000 )

   Cartesian axes

     site n.     atom                  positions (alat units)
         1           Sn  tau(   1) = (   0.0000000   0.0000000   0.0000000  )
         2           Te  tau(   2) = (   0.4896324   0.2826894   0.0000000  )

   Crystallographic axes

     site n.     atom                  positions (cryst. coord.)
         1           Sn  tau(   1) = (  0.0000000  0.0000000  0.0000000  )
         2           Te  tau(   2) = (  0.3333333  0.3333333  0.0000000  )

     number of k points=  1600  Fermi-Dirac smearing, width (Ry)=  0.0030
                       cart. coord. in units 2pi/alat
        k(    1) = (   0.0000000   0.0000000   0.0000000), wk =   0.0012500
        k(    2) = (   0.0000000   0.0294788   0.0000000), wk =   0.0012500
        k(    3) = (   0.0000000   0.0589575   0.0000000), wk =   0.0012500
        k(    4) = (   0.0000000   0.0884363   0.0000000), wk =   0.0012500
        k(    5) = (   0.0000000   0.1179150   0.0000000), wk =   0.0012500
        k(    6) = (   0.0000000   0.1473938   0.0000000), wk =   0.0012500
        k(    7) = (   0.0000000   0.1768726   0.0000000), wk =   0.0012500
        k(    8) = (   0.0000000   0.2063513   0.0000000), wk =   0.0012500
        k(    9) = (   0.0000000   0.2358301   0.0000000), wk =   0.0012500
        k(   10) = (   0.0000000   0.2653088   0.0000000), wk =   0.0012500
        k(   11) = (   0.0000000   0.2947876   0.0000000), wk =   0.0012500
        k(   12) = (   0.0000000   0.3242664   0.0000000), wk =   0.0012500
        k(   13) = (   0.0000000   0.3537451   0.0000000), wk =   0.0012500
        k(   14) = (   0.0000000   0.3832239   0.0000000), wk =   0.0012500
        k(   15) = (   0.0000000   0.4127026   0.0000000), wk =   0.0012500
        k(   16) = (   0.0000000   0.4421814   0.0000000), wk =   0.0012500
        k(   17) = (   0.0000000   0.4716602   0.0000000), wk =   0.0012500
        k(   18) = (   0.0000000   0.5011389   0.0000000), wk =   0.0012500
        k(   19) = (   0.0000000   0.5306177   0.0000000), wk =   0.0012500
        k(   20) = (   0.0000000   0.5600964   0.0000000), wk =   0.0012500
        k(   21) = (   0.0000000  -0.5895752   0.0000000), wk =   0.0012500
        k(   22) = (   0.0000000  -0.5600964   0.0000000), wk =   0.0012500
        k(   23) = (   0.0000000  -0.5306177   0.0000000), wk =   0.0012500
        k(   24) = (   0.0000000  -0.5011389   0.0000000), wk =   0.0012500
        k(   25) = (   0.0000000  -0.4716602   0.0000000), wk =   0.0012500
        k(   26) = (   0.0000000  -0.4421814   0.0000000), wk =   0.0012500
        k(   27) = (   0.0000000  -0.4127026   0.0000000), wk =   0.0012500
        k(   28) = (   0.0000000  -0.3832239   0.0000000), wk =   0.0012500
        k(   29) = (   0.0000000  -0.3537451   0.0000000), wk =   0.0012500
        k(   30) = (   0.0000000  -0.3242664   0.0000000), wk =   0.0012500
        k(   31) = (   0.0000000  -0.2947876   0.0000000), wk =   0.0012500
        k(   32) = (   0.0000000  -0.2653088   0.0000000), wk =   0.0012500
        k(   33) = (   0.0000000  -0.2358301   0.0000000), wk =   0.0012500
        k(   34) = (   0.0000000  -0.2063513   0.0000000), wk =   0.0012500
        k(   35) = (   0.0000000  -0.1768726   0.0000000), wk =   0.0012500
        k(   36) = (   0.0000000  -0.1473938   0.0000000), wk =   0.0012500
        k(   37) = (   0.0000000  -0.1179150   0.0000000), wk =   0.0012500
        k(   38) = (   0.0000000  -0.0884363   0.0000000), wk =   0.0012500
        k(   39) = (   0.0000000  -0.0589575   0.0000000), wk =   0.0012500
        k(   40) = (   0.0000000  -0.0294788   0.0000000), wk =   0.0012500
        k(   41) = (   0.0255294  -0.0147394   0.0000000), wk =   0.0012500
        k(   42) = (   0.0255294   0.0147394   0.0000000), wk =   0.0012500
        k(   43) = (   0.0255294   0.0442181   0.0000000), wk =   0.0012500
        k(   44) = (   0.0255294   0.0736969   0.0000000), wk =   0.0012500
        k(   45) = (   0.0255294   0.1031757   0.0000000), wk =   0.0012500
        k(   46) = (   0.0255294   0.1326544   0.0000000), wk =   0.0012500
        k(   47) = (   0.0255294   0.1621332   0.0000000), wk =   0.0012500
        k(   48) = (   0.0255294   0.1916119   0.0000000), wk =   0.0012500
        k(   49) = (   0.0255294   0.2210907   0.0000000), wk =   0.0012500
        k(   50) = (   0.0255294   0.2505695   0.0000000), wk =   0.0012500
        k(   51) = (   0.0255294   0.2800482   0.0000000), wk =   0.0012500
        k(   52) = (   0.0255294   0.3095270   0.0000000), wk =   0.0012500
        k(   53) = (   0.0255294   0.3390057   0.0000000), wk =   0.0012500
        k(   54) = (   0.0255294   0.3684845   0.0000000), wk =   0.0012500
        k(   55) = (   0.0255294   0.3979633   0.0000000), wk =   0.0012500
        k(   56) = (   0.0255294   0.4274420   0.0000000), wk =   0.0012500
        k(   57) = (   0.0255294   0.4569208   0.0000000), wk =   0.0012500
        k(   58) = (   0.0255294   0.4863995   0.0000000), wk =   0.0012500
        k(   59) = (   0.0255294   0.5158783   0.0000000), wk =   0.0012500
        k(   60) = (   0.0255294   0.5453571   0.0000000), wk =   0.0012500
[...]
        k( 1586) = (  -0.0255294  -0.4274420   0.0000000), wk =   0.0012500
        k( 1587) = (  -0.0255294  -0.3979633   0.0000000), wk =   0.0012500
        k( 1588) = (  -0.0255294  -0.3684845   0.0000000), wk =   0.0012500
        k( 1589) = (  -0.0255294  -0.3390057   0.0000000), wk =   0.0012500
        k( 1590) = (  -0.0255294  -0.3095270   0.0000000), wk =   0.0012500
        k( 1591) = (  -0.0255294  -0.2800482   0.0000000), wk =   0.0012500
        k( 1592) = (  -0.0255294  -0.2505695   0.0000000), wk =   0.0012500
        k( 1593) = (  -0.0255294  -0.2210907   0.0000000), wk =   0.0012500
        k( 1594) = (  -0.0255294  -0.1916119   0.0000000), wk =   0.0012500
        k( 1595) = (  -0.0255294  -0.1621332   0.0000000), wk =   0.0012500
        k( 1596) = (  -0.0255294  -0.1326544   0.0000000), wk =   0.0012500
        k( 1597) = (  -0.0255294  -0.1031757   0.0000000), wk =   0.0012500
        k( 1598) = (  -0.0255294  -0.0736969   0.0000000), wk =   0.0012500
        k( 1599) = (  -0.0255294  -0.0442181   0.0000000), wk =   0.0012500
        k( 1600) = (  -0.0255294  -0.0147394   0.0000000), wk =   0.0012500

                       cryst. coord.
        k(    1) = (   0.0000000   0.0000000   0.0000000), wk =   0.0012500
        k(    2) = (   0.0000000   0.0250000   0.0000000), wk =   0.0012500
        k(    3) = (   0.0000000   0.0500000   0.0000000), wk =   0.0012500
        k(    4) = (   0.0000000   0.0750000   0.0000000), wk =   0.0012500
        k(    5) = (   0.0000000   0.1000000   0.0000000), wk =   0.0012500
        k(    6) = (   0.0000000   0.1250000   0.0000000), wk =   0.0012500
        k(    7) = (   0.0000000   0.1500000   0.0000000), wk =   0.0012500
        k(    8) = (   0.0000000   0.1750000   0.0000000), wk =   0.0012500
        k(    9) = (   0.0000000   0.2000000   0.0000000), wk =   0.0012500
        k(   10) = (   0.0000000   0.2250000   0.0000000), wk =   0.0012500
        k(   11) = (   0.0000000   0.2500000   0.0000000), wk =   0.0012500
        k(   12) = (   0.0000000   0.2750000   0.0000000), wk =   0.0012500
        k(   13) = (   0.0000000   0.3000000   0.0000000), wk =   0.0012500
        k(   14) = (   0.0000000   0.3250000   0.0000000), wk =   0.0012500
        k(   15) = (   0.0000000   0.3500000   0.0000000), wk =   0.0012500
        k(   16) = (   0.0000000   0.3750000   0.0000000), wk =   0.0012500
        k(   17) = (   0.0000000   0.4000000   0.0000000), wk =   0.0012500
        k(   18) = (   0.0000000   0.4250000   0.0000000), wk =   0.0012500
        k(   19) = (   0.0000000   0.4500000   0.0000000), wk =   0.0012500
        k(   20) = (   0.0000000   0.4750000   0.0000000), wk =   0.0012500
        k(   21) = (   0.0000000  -0.5000000   0.0000000), wk =   0.0012500
        k(   22) = (   0.0000000  -0.4750000   0.0000000), wk =   0.0012500
        k(   23) = (   0.0000000  -0.4500000   0.0000000), wk =   0.0012500
        k(   24) = (   0.0000000  -0.4250000   0.0000000), wk =   0.0012500
        k(   25) = (   0.0000000  -0.4000000   0.0000000), wk =   0.0012500
        k(   26) = (   0.0000000  -0.3750000   0.0000000), wk =   0.0012500
        k(   27) = (   0.0000000  -0.3500000   0.0000000), wk =   0.0012500
        k(   28) = (   0.0000000  -0.3250000   0.0000000), wk =   0.0012500
        k(   29) = (   0.0000000  -0.3000000   0.0000000), wk =   0.0012500
        k(   30) = (   0.0000000  -0.2750000   0.0000000), wk =   0.0012500
        k(   31) = (   0.0000000  -0.2500000   0.0000000), wk =   0.0012500
        k(   32) = (   0.0000000  -0.2250000   0.0000000), wk =   0.0012500
        k(   33) = (   0.0000000  -0.2000000   0.0000000), wk =   0.0012500
        k(   34) = (   0.0000000  -0.1750000   0.0000000), wk =   0.0012500
        k(   35) = (   0.0000000  -0.1500000   0.0000000), wk =   0.0012500
        k(   36) = (   0.0000000  -0.1250000   0.0000000), wk =   0.0012500
        k(   37) = (   0.0000000  -0.1000000   0.0000000), wk =   0.0012500
        k(   38) = (   0.0000000  -0.0750000   0.0000000), wk =   0.0012500
        k(   39) = (   0.0000000  -0.0500000   0.0000000), wk =   0.0012500
        k(   40) = (   0.0000000  -0.0250000   0.0000000), wk =   0.0012500
        k(   41) = (   0.0250000   0.0000000   0.0000000), wk =   0.0012500
        k(   42) = (   0.0250000   0.0250000   0.0000000), wk =   0.0012500
        k(   43) = (   0.0250000   0.0500000   0.0000000), wk =   0.0012500
        k(   44) = (   0.0250000   0.0750000   0.0000000), wk =   0.0012500
        k(   45) = (   0.0250000   0.1000000   0.0000000), wk =   0.0012500
        k(   46) = (   0.0250000   0.1250000   0.0000000), wk =   0.0012500
        k(   47) = (   0.0250000   0.1500000   0.0000000), wk =   0.0012500
        k(   48) = (   0.0250000   0.1750000   0.0000000), wk =   0.0012500
        k(   49) = (   0.0250000   0.2000000   0.0000000), wk =   0.0012500
        k(   50) = (   0.0250000   0.2250000   0.0000000), wk =   0.0012500
        k(   51) = (   0.0250000   0.2500000   0.0000000), wk =   0.0012500
        k(   52) = (   0.0250000   0.2750000   0.0000000), wk =   0.0012500
        k(   53) = (   0.0250000   0.3000000   0.0000000), wk =   0.0012500
        k(   54) = (   0.0250000   0.3250000   0.0000000), wk =   0.0012500
        k(   55) = (   0.0250000   0.3500000   0.0000000), wk =   0.0012500
        k(   56) = (   0.0250000   0.3750000   0.0000000), wk =   0.0012500
        k(   57) = (   0.0250000   0.4000000   0.0000000), wk =   0.0012500
        k(   58) = (   0.0250000   0.4250000   0.0000000), wk =   0.0012500
        k(   59) = (   0.0250000   0.4500000   0.0000000), wk =   0.0012500
        k(   60) = (   0.0250000   0.4750000   0.0000000), wk =   0.0012500
[...]
        k( 1586) = (  -0.0250000  -0.3750000   0.0000000), wk =   0.0012500
        k( 1587) = (  -0.0250000  -0.3500000   0.0000000), wk =   0.0012500
        k( 1588) = (  -0.0250000  -0.3250000   0.0000000), wk =   0.0012500
        k( 1589) = (  -0.0250000  -0.3000000   0.0000000), wk =   0.0012500
        k( 1590) = (  -0.0250000  -0.2750000   0.0000000), wk =   0.0012500
        k( 1591) = (  -0.0250000  -0.2500000   0.0000000), wk =   0.0012500
        k( 1592) = (  -0.0250000  -0.2250000   0.0000000), wk =   0.0012500
        k( 1593) = (  -0.0250000  -0.2000000   0.0000000), wk =   0.0012500
        k( 1594) = (  -0.0250000  -0.1750000   0.0000000), wk =   0.0012500
        k( 1595) = (  -0.0250000  -0.1500000   0.0000000), wk =   0.0012500
        k( 1596) = (  -0.0250000  -0.1250000   0.0000000), wk =   0.0012500
        k( 1597) = (  -0.0250000  -0.1000000   0.0000000), wk =   0.0012500
        k( 1598) = (  -0.0250000  -0.0750000   0.0000000), wk =   0.0012500
        k( 1599) = (  -0.0250000  -0.0500000   0.0000000), wk =   0.0012500
        k( 1600) = (  -0.0250000  -0.0250000   0.0000000), wk =   0.0012500

     Check: negative core charge=   -0.000011

     Initial potential from superposition of free atoms

     starting charge   29.99873, renormalised to   30.00000

     negative rho (up, down):  4.140E-04 0.000E+00
     Starting wfcs are   18 randomized atomic wfcs +   22 random wfcs
     Checking if some PAW data can be deallocated...

     Self-consistent Calculation

     iteration #  1     ecut=    50.00 Ry     beta= 0.70
     Davidson diagonalization with overlap
     ethr =  1.00E-02,  avg # of iterations =  6.1

     Threshold (ethr) on eigenvalues was too large:
     Diagonalizing with lowered threshold

     Davidson diagonalization with overlap
     ethr =  2.17E-04,  avg # of iterations =  6.3

     negative rho (up, down):  4.238E-04 0.000E+00

     total energy              =    -932.19338518 Ry
     Harris-Foulkes estimate   =    -932.23873240 Ry
     estimated scf accuracy    <       0.06537495 Ry

[...]

     iteration #  4     ecut=    50.00 Ry     beta= 0.70
     Davidson diagonalization with overlap
     c_bands:  1 eigenvalues not converged
     c_bands:  1 eigenvalues not converged
     ethr =  5.61E-06,  avg # of iterations =  5.1

[...]

     total energy              =    -932.22052272 Ry
     Harris-Foulkes estimate   =    -932.22052274 Ry
     estimated scf accuracy    <       0.00000012 Ry

     iteration #  7     ecut=    50.00 Ry     beta= 0.70
     Davidson diagonalization with overlap
     ethr =  3.88E-10,  avg # of iterations =  2.7

[...]

     End of self-consistent calculation

          k = 0.0000 0.0000 0.0000 ( 14035 PWs)   bands (ev):

   -38.4606 -38.4606 -38.3976 -38.3976 -38.3845 -23.6327 -23.5877 -23.5877
   -23.5320 -23.5320 -13.4967  -7.1187  -4.5730  -4.5730  -4.4241  -0.2611
    -0.2611   0.1203   1.2160   2.2392   2.2729   3.6523   4.5171   5.0801
     5.3253   5.3253   6.9378   6.9378   7.4418   8.4806   8.7105   8.7105
     8.9742   9.0855   9.1968   9.1968   9.5143   9.7911   9.9053   9.9055

     occupation numbers
     1.0000   1.0000   1.0000   1.0000   1.0000   1.0000   1.0000   1.0000
     1.0000   1.0000   1.0000   1.0000   1.0000   1.0000   1.0000   0.0000
     0.0000   0.0000   0.0000   0.0000   0.0000   0.0000   0.0000   0.0000
     0.0000   0.0000   0.0000   0.0000   0.0000   0.0000   0.0000   0.0000
     0.0000   0.0000   0.0000   0.0000   0.0000   0.0000   0.0000   0.0000

[...]

          k = 0.4851-0.3095 0.0000 ( 14040 PWs)   bands (ev):

[...]

          k =-0.5106 0.2948 0.0000 ( 14020 PWs)   bands (ev):

[...]

          k =-0.0255-0.0147 0.0000 ( 14033 PWs)   bands (ev):

   -38.4606 -38.4606 -38.3976 -38.3976 -38.3845 -23.6326 -23.5877 -23.5877
   -23.5320 -23.5320 -13.4940  -7.1425  -4.5787  -4.5494  -4.4206  -0.2651
    -0.2469   0.1099   1.2224   2.2451   2.2768   3.6723   4.5186   5.0849
     5.3094   5.3241   6.8755   6.9625   7.5319   8.3075   8.6529   8.7882
     8.9782   9.0290   9.2154   9.2536   9.5847   9.6541   9.6552   9.8209

     occupation numbers
     1.0000   1.0000   1.0000   1.0000   1.0000   1.0000   1.0000   1.0000
     1.0000   1.0000   1.0000   1.0000   1.0000   1.0000   1.0000   0.0000
     0.0000   0.0000   0.0000   0.0000   0.0000   0.0000   0.0000   0.0000
     0.0000   0.0000   0.0000   0.0000   0.0000   0.0000   0.0000   0.0000
     0.0000   0.0000   0.0000   0.0000   0.0000   0.0000   0.0000   0.0000

     the Fermi energy is    -1.7421 ev

!    total energy              =    -932.22052274 Ry
     Harris-Foulkes estimate   =    -932.22052274 Ry
     estimated scf accuracy    <          2.6E-09 Ry

     total all-electron energy =    -25921.963945 Ry

     The total energy is the sum of the following terms:

     one-electron contribution =    -716.38935657 Ry
     hartree contribution      =     360.47150919 Ry
     xc contribution           =     -72.16399036 Ry
     ewald contribution        =      76.91482840 Ry
     one-center paw contrib.   =    -581.05272873 Ry
      -> PAW hartree energy AE =     112.96721578 Ry
      -> PAW hartree energy PS =    -103.34631116 Ry
      -> PAW xc energy AE      =    -318.46523324 Ry
      -> PAW xc energy PS      =      26.45339661 Ry
      -> total E_H with PAW    =     370.09241381 Ry
      -> total E_XC with PAW   =    -364.17582699 Ry
     smearing contrib. (-TS)   =      -0.00078467 Ry

     convergence has been achieved in   7 iterations

     negative rho (up, down):  4.045E-04 0.000E+00

     Forces acting on atoms (cartesian axes, Ry/au):

     atom    1 type  1   force =    -0.00002548    0.00000737   -0.00000609
     atom    2 type  2   force =     0.00002548   -0.00000737    0.00000609
     The non-local contrib.  to forces
     atom    1 type  1   force =     0.00000139    0.00000486   -0.00001934
     atom    2 type  2   force =     0.00004651   -0.00002332    0.00000315
     The ionic contribution  to forces
     atom    1 type  1   force =    -0.00000001   -0.00000004   -0.00000000
     atom    2 type  2   force =     0.00000001    0.00000004    0.00000000
     The local contribution  to forces
     atom    1 type  1   force =     0.00000582   -0.00000559    0.00002942
     atom    2 type  2   force =    -0.00000955   -0.00000264    0.00002934
     The core correction contribution to forces
     atom    1 type  1   force =     0.00000015   -0.00000027    0.00000019
     atom    2 type  2   force =    -0.00000106   -0.00000033    0.00000065
     The Hubbard contrib.    to forces
     atom    1 type  1   force =     0.00000000    0.00000000    0.00000000
     atom    2 type  2   force =     0.00000000    0.00000000    0.00000000
     The SCF correction term to forces
     atom    1 type  1   force =    -0.00001124    0.00000472   -0.00003129
     atom    2 type  2   force =     0.00001115    0.00001519   -0.00004196

     Total force =     0.000038     Total SCF correction =     0.000057
     SCF correction compared to forces is large: reduce conv_thr to get better values

     Computing stress (Cartesian axis) and pressure

     negative rho (up, down):  4.045E-04 0.000E+00
          total   stress  (Ry/bohr**3)                   (kbar)     P=   -0.20
  -0.00000081   0.00000000  -0.00000000         -0.12      0.00     -0.00
   0.00000000  -0.00000081   0.00000000          0.00     -0.12      0.00
  -0.00000000   0.00000000  -0.00000241         -0.00      0.00     -0.35

     kinetic stress (kbar)   1714.34      0.00     -0.00
                                0.00   1714.34      0.00
                               -0.00      0.00   1739.89

     local   stress (kbar) -32895.79     -0.00     -0.00
                               -0.00 -32895.79     -0.00
                               -0.00     -0.00  34173.56

     nonloc. stress (kbar)    632.24      0.00     -0.00
                                0.00    632.24      0.00
                               -0.00      0.00    614.70

     hartree stress (kbar)  18210.47      0.00      0.00
                                0.00  18210.47      0.00
                                0.00      0.00 -13848.91

     exc-cor stress (kbar)   1126.16      0.00      0.00
                                0.00   1126.16      0.00
                                0.00      0.00   1126.16

     corecor stress (kbar)  -2065.91      0.00     -0.00
                                0.00  -2065.91     -0.00
                               -0.00     -0.00  -2065.26

     ewald   stress (kbar)  13278.37      0.00     -0.00
                                0.00  13278.37     -0.00
                               -0.00     -0.00 -21740.49

     hubbard stress (kbar)      0.00      0.00      0.00
                                0.00      0.00      0.00
                                0.00      0.00      0.00

     london  stress (kbar)      0.00      0.00      0.00
                                0.00      0.00      0.00
                                0.00      0.00      0.00

     DFT-D3  stress (kbar)      0.00      0.00      0.00
                                0.00      0.00      0.00
                                0.00      0.00      0.00

     XDM     stress (kbar)      0.00      0.00      0.00
                                0.00      0.00      0.00
                                0.00      0.00      0.00

     dft-nl  stress (kbar)      0.00      0.00      0.00
                                0.00      0.00      0.00
                                0.00      0.00      0.00

     TS-vdW  stress (kbar)      0.00      0.00      0.00
                                0.00      0.00      0.00
                                0.00      0.00      0.00

     Writing output data file snte.save/

     General routines

     Parallel routines

     PAW routines

   This run was terminated on:   9:55:28  16Oct2023

   JOB DONE.