     Program PWSCF v.6.1 (svn rev. 13369) starts on 20Sep2020 at 19:36:58

     Current dimensions of program PWSCF are:
     Max number of different atomic species (ntypx) = 10
     Max number of k-points (npk) =  40000
     Max angular momentum in pseudopotentials (lmaxx) =  3
               file Pb.UPF: wavefunction(s)  6S 6P 5D renormalized
               file Te.UPF: wavefunction(s)  5S 5P 4D renormalized

     Title:
      PbTe_PZ

     bravais-lattice index     =            0
     lattice parameter (alat)  =       9.8060  a.u.
     unit-cell volume          =    2448.3141 (a.u.)^3
     number of atoms/cell      =            2
     number of atomic types    =            2
     number of electrons       =        30.00
     number of Kohn-Sham states=           20
     kinetic-energy cutoff     =      42.0000  Ry
     charge density cutoff     =     252.0000  Ry
     convergence threshold     =      1.0E-08
     mixing beta               =       0.7000
     number of iterations used =            8  plain     mixing
     Exchange-correlation      =  SLA  PW   PBX  PBC ( 1  4  3  4 0 0)

     celldm(1)=   9.806000  celldm(2)=   0.000000  celldm(3)=   0.000000
     celldm(4)=   0.000000  celldm(5)=   0.000000  celldm(6)=   0.000000

     crystal axes: (cart. coord. in units of alat)
               a(1) = (   0.999700  -0.000000   0.000000 )
               a(2) = (   0.499850   0.865766   0.000000 )
               a(3) = (   0.000000   0.000000   3.000000 )

     reciprocal axes: (cart. coord. in units 2 pi/alat)
               b(1) = (  1.000300 -0.577523  0.000000 )
               b(2) = (  0.000000  1.155047 -0.000000 )
               b(3) = ( -0.000000  0.000000  0.333333 )

     PseudoPot. # 1 for Pb read from file:
     ./Pb.UPF
     MD5 check sum: 6028b95c5a6d19f69fe660acfe6aaac3
     Pseudo is Projector augmented-wave + core cor, Zval = 14.0
     Generated using "atomic" code by A. Dal Corso  v.6.3
     Shape of augmentation charge: PSQ
     Using radial grid of 1281 points,  6 beta functions with:
                l(1) =   0
                l(2) =   0
                l(3) =   1
                l(4) =   1
                l(5) =   2
                l(6) =   2
     Q(r) pseudized with 0 coefficients

     PseudoPot. # 2 for Te read from file:
     ./Te.UPF
     MD5 check sum: aca3ac145373e32ea850d75d9135ff66
     Pseudo is Projector augmented-wave + core cor, Zval = 16.0
     Generated using "atomic" code by A. Dal Corso  v.5.0.2 svn rev. 9415
     Shape of augmentation charge: PSQ
     Using radial grid of 1245 points,  6 beta functions with:
                l(1) =   0
                l(2) =   0
                l(3) =   1
                l(4) =   1
                l(5) =   2
                l(6) =   2
     Q(r) pseudized with 0 coefficients

     atomic species   valence    mass     pseudopotential
        Pb            14.00   207.20000     Pb( 1.00)
        Te            16.00   127.60000     Te( 1.00)

     No symmetry found

   Cartesian axes

     site n.     atom                  positions (alat units)
         1           Pb  tau(   1) = (   0.0000000   0.0000000   0.0000000  )
         2           Te  tau(   2) = (   0.4998501   0.2885886   0.0000000  )

     number of k points=   400

     Number of k-points >= 100: set verbosity='high' to print them.

     Check: negative/imaginary core charge=   -0.000009    0.000000

     Initial potential from superposition of free atoms
     Check: negative starting charge=   -0.000167

     starting charge   29.99743, renormalised to   30.00000

     negative rho (up, down):  1.669E-04 0.000E+00
     Starting wfc are   18 randomized atomic wfcs +    2 random wfc

     Self-consistent Calculation

     iteration #  1     ecut=    42.00 Ry     beta=0.70
     Davidson diagonalization with overlap
     ethr =  1.00E-02,  avg # of iterations =  7.2

     Threshold (ethr) on eigenvalues was too large:
     Diagonalizing with lowered threshold

     Davidson diagonalization with overlap
     ethr =  3.31E-04,  avg # of iterations =  4.2

     negative rho (up, down):  2.274E-04 0.000E+00

     total energy              =   -1382.69366954 Ry
     Harris-Foulkes estimate   =   -1382.76152613 Ry
     estimated scf accuracy    <       0.09987855 Ry

[...]

     total energy              =   -1382.73300011 Ry
     Harris-Foulkes estimate   =   -1382.73300012 Ry
     estimated scf accuracy    <       0.00000003 Ry

     iteration #  9     ecut=    42.00 Ry     beta=0.70
     Davidson diagonalization with overlap
     ethr =  1.02E-10,  avg # of iterations =  2.1

[...]

     End of self-consistent calculation

     Number of k-points >= 100: set verbosity='high' to print the bands.

     highest occupied, lowest unoccupied level (ev):    -1.3672   -1.2775

!    total energy              =   -1382.73300012 Ry
     Harris-Foulkes estimate   =   -1382.73300012 Ry
     estimated scf accuracy    <          5.7E-10 Ry

     total all-electron energy =    -55353.249950 Ry

     The total energy is the sum of the following terms:

     one-electron contribution =    -670.95672302 Ry
     hartree contribution      =     348.39101066 Ry
     xc contribution           =     -78.40716812 Ry
     ewald contribution        =      68.39051884 Ry
     one-center paw contrib.   =   -1050.15063848 Ry

     convergence has been achieved in   9 iterations

     negative rho (up, down):  2.376E-04 0.000E+00

     Forces acting on atoms (cartesian axes, Ry/au):

     atom    1 type  1   force =    -0.00000183    0.00000019   -0.00007183
     atom    2 type  2   force =     0.00000183   -0.00000019    0.00007183

     Total force =     0.000102     Total SCF correction =     0.000049
     SCF correction compared to forces is large: reduce conv_thr to get better values

     Computing stress (Cartesian axis) and pressure

     negative rho (up, down):  2.376E-04 0.000E+00
          total   stress  (Ry/bohr**3)                   (kbar)     P=   -0.97
   0.00001206   0.00000000  -0.00000000          1.77      0.00     -0.00
   0.00000000   0.00001206  -0.00000000          0.00      1.77     -0.00
  -0.00000000  -0.00000000  -0.00004389         -0.00     -0.00     -6.46

     Writing output data file pbte.save

     General routines

   This run was terminated on:  20:42:33  20Sep2020

   JOB DONE.